ITEM: TIMESTEP
0
ITEM: NUMBER OF ATOMS
1442
ITEM: BOX BOUNDS pp pp pp
0.000000000e+00 4.910863666e+01
0.000000000e+00 5.003450223e+01
0.000000000e+00 2.500000000e+01
ITEM: ATOMS id element x y z
   1  B 2.285425e+01 2.065643e+01 7.073530e+00
   2  B 2.426145e+01 2.326233e+01 6.867940e+00
   3  B 2.730175e+01 2.327663e+01 7.231480e+00
   4 Ag 4.696475e+01 2.385629e+00 0.000000e+00
   5 Ag 4.552038e+01 4.887351e+00 0.000000e+00
   6 Ag 4.551685e+01 3.356791e+00 2.280630e+00
   7 Ag 4.714525e+01 5.907711e+00 2.644820e+00
   8 Ag 4.511035e+01 1.824876e+00 4.790010e+00
   9 Ag 4.705722e+01 4.352401e+00 5.027020e+00
  10 Ag 4.696475e+01 7.389081e+00 0.000000e+00
  11 Ag 4.552038e+01 9.890801e+00 0.000000e+00
  12 Ag 4.546215e+01 8.123791e+00 2.475870e+00
  13 Ag 4.667177e+01 1.091043e+01 2.392030e+00
  14 Ag 4.558065e+01 6.783251e+00 4.782640e+00
  15 Ag 4.695560e+01 9.367131e+00 4.659380e+00
  16 Ag 4.696475e+01 1.239253e+01 0.000000e+00
  17 Ag 4.552038e+01 1.489423e+01 0.000000e+00
  18 Ag 4.544655e+01 1.324553e+01 2.321760e+00
  19 Ag 4.702519e+01 1.576343e+01 2.415770e+00
  20 Ag 4.524325e+01 1.166773e+01 4.913440e+00
  21 Ag 4.702365e+01 1.394893e+01 5.136880e+00
  22 Ag 4.696475e+01 1.739603e+01 0.000000e+00
  23 Ag 4.552038e+01 1.989773e+01 0.000000e+00
  24 Ag 4.577309e+01 1.837093e+01 2.571510e+00
  25 Ag 4.710817e+01 2.076663e+01 2.456710e+00
  26 Ag 4.568947e+01 1.684043e+01 5.283490e+00
  27 Ag 4.716520e+01 1.934453e+01 4.848880e+00
  28 Ag 4.696475e+01 2.239943e+01 0.000000e+00
  29 Ag 4.552038e+01 2.490113e+01 0.000000e+00
  30 Ag 4.553550e+01 2.327993e+01 2.505260e+00
  31 Ag 4.695866e+01 2.564843e+01 2.407140e+00
  32 Ag 4.544848e+01 2.202723e+01 4.844840e+00
  33 Ag 4.706093e+01 2.410843e+01 5.205430e+00
  34 Ag 4.696475e+01 2.740293e+01 0.000000e+00
  35 Ag 4.552038e+01 2.990463e+01 0.000000e+00
  36 Ag 4.552472e+01 2.809503e+01 2.582110e+00
  37 Ag 4.670968e+01 3.069453e+01 2.355010e+00
  38 Ag 4.270385e+01 2.656073e+01 4.840660e+00
  39 Ag 4.674867e+01 2.906513e+01 5.360950e+00
  40 Ag 4.696475e+01 3.240633e+01 0.000000e+00
  41 Ag 4.552038e+01 3.490803e+01 0.000000e+00
  42 Ag 4.560609e+01 3.307973e+01 2.392730e+00
  43 Ag 4.707448e+01 3.583093e+01 2.326510e+00
  44 Ag 4.235465e+01 3.164833e+01 4.706030e+00
  45 Ag 4.809633e+01 3.143733e+01 4.609620e+00
  46 Ag 4.696475e+01 3.740983e+01 0.000000e+00
  47 Ag 4.552038e+01 3.991153e+01 0.000000e+00
  48 Ag 4.533715e+01 3.819243e+01 2.430320e+00
  49 Ag 4.701501e+01 4.049873e+01 2.418820e+00
  50 Ag 4.406705e+01 3.409083e+01 4.986180e+00
  51 Ag 4.717176e+01 3.904803e+01 4.775750e+00
  52 Ag 4.696475e+01 4.241323e+01 0.000000e+00
  53 Ag 4.552038e+01 4.491493e+01 0.000000e+00
  54 Ag 4.536073e+01 4.310493e+01 2.730570e+00
  55 Ag 4.703974e+01 4.596223e+01 2.628200e+00
  56 Ag 4.555679e+01 4.151023e+01 5.019120e+00
  57 Ag 4.708162e+01 4.385813e+01 4.979040e+00
  58 Ag 4.696475e+01 4.741673e+01 0.000000e+00
  59 Ag 4.552038e+01 4.991843e+01 0.000000e+00
  60 Ag 4.545565e+01 4.830483e+01 2.315660e+00
  61 Ag 4.674669e+01 7.648187e-01 2.302240e+00
  62 Ag 4.573182e+01 4.689483e+01 5.178460e+00
  63 Ag 4.701714e+01 4.930083e+01 4.867840e+00
  64 Ag 7.448537e-01 2.385629e+00 0.000000e+00
  65 Ag 4.840912e+01 4.887351e+00 0.000000e+00
  66 Ag 4.862432e+01 3.243901e+00 2.348190e+00
  67 Ag 7.256737e-01 5.850311e+00 2.138210e+00
  68 Ag 4.806043e+01 1.694323e+00 4.661780e+00
  69 Ag 7.876637e-01 4.103061e+00 4.679130e+00
  70 Ag 7.448537e-01 7.389081e+00 0.000000e+00
  71 Ag 4.840912e+01 9.890801e+00 0.000000e+00
  72 Ag 4.833529e+01 8.408401e+00 2.524720e+00
  73 Ag 6.789937e-01 1.074899e+01 2.304880e+00
  74 Ag 4.870969e+01 6.709301e+00 4.645380e+00
  75 Ag 1.013054e+00 8.894031e+00 4.485650e+00
  76 Ag 7.448537e-01 1.239253e+01 0.000000e+00
  77 Ag 4.840912e+01 1.489423e+01 0.000000e+00
  78 Ag 4.818519e+01 1.313583e+01 2.426830e+00
  79 Ag 5.566237e-01 1.550963e+01 2.518320e+00
  80 Ag 4.859906e+01 1.128066e+01 5.166050e+00
  81 Ag 9.192037e-01 1.355753e+01 4.694660e+00
  82 Ag 7.448537e-01 1.739603e+01 0.000000e+00
  83 Ag 4.840912e+01 1.989773e+01 0.000000e+00
  84 Ag 4.841169e+01 1.832093e+01 2.353450e+00
  85 Ag 7.727537e-01 2.081723e+01 2.254100e+00
  86 Ag 4.827804e+01 1.620903e+01 4.800860e+00
  87 Ag 7.988937e-01 1.885143e+01 4.640980e+00
  88 Ag 7.448537e-01 2.239943e+01 0.000000e+00
  89 Ag 4.840912e+01 2.490113e+01 0.000000e+00
  90 Ag 4.854542e+01 2.343803e+01 2.296010e+00
  91 Ag 7.756237e-01 2.580343e+01 2.433020e+00
  92 Ag 4.834277e+01 2.164713e+01 4.851330e+00
  93 Ag 8.749537e-01 2.388993e+01 4.676200e+00
  94 Ag 7.448537e-01 2.740293e+01 0.000000e+00
  95 Ag 4.840912e+01 2.990463e+01 0.000000e+00
  96 Ag 4.847114e+01 2.845763e+01 2.455020e+00
  97 Ag 9.130637e-01 3.079753e+01 2.374360e+00
  98 Ag 4.531845e+01 2.613223e+01 5.369850e+00
  99 Ag 4.813906e+01 2.680513e+01 4.555810e+00
 100 Ag 7.448537e-01 3.240633e+01 0.000000e+00
 101 Ag 4.840912e+01 3.490803e+01 0.000000e+00
 102 Ag 4.825503e+01 3.311113e+01 2.294640e+00
 103 Ag 6.250537e-01 3.548133e+01 2.191060e+00
 104 Ag 3.407337e-01 2.908023e+01 5.425980e+00
 105 Ag 4.832368e+01 3.620273e+01 5.200290e+00
 106 Ag 7.448537e-01 3.740983e+01 0.000000e+00
 107 Ag 4.840912e+01 3.991153e+01 0.000000e+00
 108 Ag 4.864500e+01 3.813273e+01 2.633880e+00
 109 Ag 8.131337e-01 4.082743e+01 2.588320e+00
 110 Ag 4.550082e+01 3.658723e+01 4.548490e+00
 111 Ag 8.123637e-01 3.877663e+01 5.065060e+00
 112 Ag 7.448537e-01 4.241323e+01 0.000000e+00
 113 Ag 4.840912e+01 4.491493e+01 0.000000e+00
 114 Ag 4.831486e+01 4.324563e+01 2.481140e+00
 115 Ag 5.677837e-01 4.584143e+01 2.274240e+00
 116 Ag 4.836559e+01 4.138833e+01 4.929900e+00
 117 Ag 7.751537e-01 4.409323e+01 4.907880e+00
 118 Ag 7.448537e-01 4.741673e+01 0.000000e+00
 119 Ag 4.840912e+01 4.991843e+01 0.000000e+00
 120 Ag 4.838564e+01 4.854863e+01 2.438390e+00
 121 Ag 8.482237e-01 7.527187e-01 2.655240e+00
 122 Ag 4.846830e+01 4.672723e+01 4.917650e+00
 123 Ag 7.012437e-01 4.910543e+01 4.713400e+00
 124 Ag 3.633604e+00 2.385629e+00 0.000000e+00
 125 Ag 2.189234e+00 4.887351e+00 0.000000e+00
 126 Ag 2.258794e+00 3.309431e+00 2.234310e+00
 127 Ag 3.565474e+00 5.551331e+00 2.514160e+00
 128 Ag 2.426244e+00 1.520019e+00 4.852050e+00
 129 Ag 3.465914e+00 3.992611e+00 4.607010e+00
 130 Ag 3.633604e+00 7.389081e+00 0.000000e+00
 131 Ag 2.189234e+00 9.890801e+00 0.000000e+00
 132 Ag 2.404594e+00 8.041321e+00 2.446990e+00
 133 Ag 3.721774e+00 1.050298e+01 2.518680e+00
 134 Ag 2.191034e+00 6.489391e+00 5.436040e+00
 135 Ag 3.627874e+00 8.744631e+00 4.958030e+00
 136 Ag 3.633604e+00 1.239253e+01 0.000000e+00
 137 Ag 2.189234e+00 1.489423e+01 0.000000e+00
 138 Ag 2.533064e+00 1.306183e+01 2.384160e+00
 139 Ag 3.621164e+00 1.554633e+01 2.422150e+00
 140 Ag 2.356134e+00 1.131731e+01 4.818560e+00
 141 Ag 3.755954e+00 1.386683e+01 4.910370e+00
 142 Ag 3.633604e+00 1.739603e+01 0.000000e+00
 143 Ag 2.189234e+00 1.989773e+01 0.000000e+00
 144 Ag 2.255574e+00 1.784123e+01 2.571630e+00
 145 Ag 3.827244e+00 2.060313e+01 2.840900e+00
 146 Ag 2.162464e+00 1.611283e+01 4.821000e+00
 147 Ag 3.561164e+00 1.855313e+01 4.786700e+00
 148 Ag 3.633604e+00 2.239943e+01 0.000000e+00
 149 Ag 2.189234e+00 2.490113e+01 0.000000e+00
 150 Ag 2.522134e+00 2.304573e+01 2.466370e+00
 151 Ag 3.687284e+00 2.572903e+01 2.893940e+00
 152 Ag 2.239634e+00 2.153753e+01 4.846440e+00
 153 Ag 3.805374e+00 2.406353e+01 4.953310e+00
 154 Ag 3.633604e+00 2.740293e+01 0.000000e+00
 155 Ag 2.189234e+00 2.990463e+01 0.000000e+00
 156 Ag 2.276304e+00 2.825733e+01 2.611790e+00
 157 Ag 3.893634e+00 3.048703e+01 2.540490e+00
 158 Ag 2.089754e+00 2.645673e+01 4.748220e+00
 159 Ag 3.209604e+00 2.897233e+01 5.170360e+00
 160 Ag 3.633604e+00 3.240633e+01 0.000000e+00
 161 Ag 2.189234e+00 3.490803e+01 0.000000e+00
 162 Ag 2.285364e+00 3.310683e+01 2.240490e+00
 163 Ag 3.547594e+00 3.561283e+01 2.306670e+00
 164 Ag 2.081404e+00 3.154073e+01 4.448860e+00
 165 Ag 1.898434e+00 3.631353e+01 4.480920e+00
 166 Ag 3.633604e+00 3.740983e+01 0.000000e+00
 167 Ag 2.189234e+00 3.991153e+01 0.000000e+00
 168 Ag 2.220564e+00 3.812333e+01 2.689330e+00
 169 Ag 3.547824e+00 4.054143e+01 2.353750e+00
 170 Ag 3.958137e-01 3.367573e+01 5.280690e+00
 171 Ag 3.694844e+00 3.884903e+01 5.086410e+00
 172 Ag 3.633604e+00 4.241323e+01 0.000000e+00
 173 Ag 2.189234e+00 4.491493e+01 0.000000e+00
 174 Ag 1.940934e+00 4.334313e+01 2.206230e+00
 175 Ag 3.587684e+00 4.594073e+01 2.242390e+00
 176 Ag 2.270784e+00 4.123153e+01 4.845500e+00
 177 Ag 3.628354e+00 4.402943e+01 4.679370e+00
 178 Ag 3.633604e+00 4.741673e+01 0.000000e+00
 179 Ag 2.189234e+00 4.991843e+01 0.000000e+00
 180 Ag 2.165924e+00 4.837923e+01 2.358000e+00
 181 Ag 3.677884e+00 7.038187e-01 2.565760e+00
 182 Ag 2.138984e+00 4.653283e+01 4.427790e+00
 183 Ag 3.638464e+00 4.907023e+01 5.026010e+00
 184 Ag 6.522344e+00 2.385629e+00 0.000000e+00
 185 Ag 5.077974e+00 4.887351e+00 0.000000e+00
 186 Ag 5.081084e+00 2.989011e+00 2.447550e+00
 187 Ag 6.518944e+00 5.622551e+00 2.387530e+00
 188 Ag 5.575144e+00 1.708902e+00 5.698940e+00
 189 Ag 6.278744e+00 3.985041e+00 4.969180e+00
 190 Ag 6.522344e+00 7.389081e+00 0.000000e+00
 191 Ag 5.077974e+00 9.890801e+00 0.000000e+00
 192 Ag 5.085804e+00 7.938951e+00 2.289520e+00
 193 Ag 6.686344e+00 1.071046e+01 2.357490e+00
 194 Ag 4.987604e+00 6.153071e+00 5.194670e+00
 195 Ag 6.356044e+00 8.964011e+00 4.890290e+00
 196 Ag 6.522344e+00 1.239253e+01 0.000000e+00
 197 Ag 5.077974e+00 1.489423e+01 0.000000e+00
 198 Ag 5.165614e+00 1.299603e+01 2.617640e+00
 199 Ag 6.617344e+00 1.580543e+01 2.442790e+00
 200 Ag 5.245094e+00 1.166053e+01 4.678700e+00
 201 Ag 6.638644e+00 1.409173e+01 4.839770e+00
 202 Ag 6.522344e+00 1.739603e+01 0.000000e+00
 203 Ag 5.077974e+00 1.989773e+01 0.000000e+00
 204 Ag 4.983714e+00 1.823753e+01 2.441830e+00
 205 Ag 6.851944e+00 2.070923e+01 2.405440e+00
 206 Ag 4.947374e+00 1.637293e+01 5.495090e+00
 207 Ag 6.289094e+00 1.883763e+01 4.675240e+00
 208 Ag 6.522344e+00 2.239943e+01 0.000000e+00
 209 Ag 5.077974e+00 2.490113e+01 0.000000e+00
 210 Ag 5.190214e+00 2.304733e+01 2.265400e+00
 211 Ag 6.546744e+00 2.549583e+01 2.527940e+00
 212 Ag 4.843224e+00 2.100993e+01 5.466180e+00
 213 Ag 6.614544e+00 2.392203e+01 4.726960e+00
 214 Ag 6.522344e+00 2.740293e+01 0.000000e+00
 215 Ag 5.077974e+00 2.990463e+01 0.000000e+00
 216 Ag 5.270194e+00 2.801513e+01 2.414390e+00
 217 Ag 6.719744e+00 3.072443e+01 2.536790e+00
 218 Ag 4.906774e+00 2.663933e+01 5.288390e+00
 219 Ag 6.099104e+00 2.928083e+01 4.814850e+00
 220 Ag 6.522344e+00 3.240633e+01 0.000000e+00
 221 Ag 5.077974e+00 3.490803e+01 0.000000e+00
 222 Ag 4.901864e+00 3.307343e+01 2.411440e+00
 223 Ag 6.516344e+00 3.567233e+01 2.670410e+00
 224 Ag 6.487044e+00 3.366433e+01 4.875910e+00
 225 Ag 3.513544e+00 3.387583e+01 4.711180e+00
 226 Ag 6.522344e+00 3.740983e+01 0.000000e+00
 227 Ag 5.077974e+00 3.991153e+01 0.000000e+00
 228 Ag 4.930874e+00 3.809713e+01 2.475670e+00
 229 Ag 6.503444e+00 4.066203e+01 2.285300e+00
 230 Ag 4.589704e+00 3.633453e+01 5.095260e+00
 231 Ag 6.389604e+00 3.901663e+01 4.826940e+00
 232 Ag 6.522344e+00 4.241323e+01 0.000000e+00
 233 Ag 5.077974e+00 4.491493e+01 0.000000e+00
 234 Ag 5.166294e+00 4.322173e+01 2.511940e+00
 235 Ag 6.686844e+00 4.583453e+01 2.454070e+00
 236 Ag 4.884894e+00 4.136873e+01 4.637060e+00
 237 Ag 6.588244e+00 4.416973e+01 4.859140e+00
 238 Ag 6.522344e+00 4.741673e+01 0.000000e+00
 239 Ag 5.077974e+00 4.991843e+01 0.000000e+00
 240 Ag 4.945844e+00 4.835403e+01 2.334860e+00
 241 Ag 6.559144e+00 7.307187e-01 2.489810e+00
 242 Ag 5.027984e+00 4.664153e+01 4.645970e+00
 243 Ag 6.324244e+00 4.933533e+01 4.624160e+00
 244 Ag 9.411044e+00 2.385629e+00 0.000000e+00
 245 Ag 7.966744e+00 4.887351e+00 0.000000e+00
 246 Ag 8.288644e+00 3.404291e+00 2.582760e+00
 247 Ag 9.591544e+00 5.775281e+00 2.759870e+00
 248 Ag 8.203644e+00 1.748058e+00 4.968940e+00
 249 Ag 9.635044e+00 4.275971e+00 5.196320e+00
 250 Ag 9.411044e+00 7.389081e+00 0.000000e+00
 251 Ag 7.966744e+00 9.890801e+00 0.000000e+00
 252 Ag 8.002144e+00 8.252591e+00 2.413470e+00
 253 Ag 9.495544e+00 1.051925e+01 2.972670e+00
 254 Ag 7.993544e+00 6.471701e+00 5.208140e+00
 255 Ag 9.215144e+00 9.041561e+00 5.499520e+00
 256 Ag 9.411044e+00 1.239253e+01 0.000000e+00
 257 Ag 7.966744e+00 1.489423e+01 0.000000e+00
 258 Ag 8.027044e+00 1.334733e+01 2.390040e+00
 259 Ag 9.454044e+00 1.550533e+01 2.693530e+00
 260 Ag 7.873344e+00 1.155253e+01 4.936010e+00
 261 Ag 9.457244e+00 1.378293e+01 4.819130e+00
 262 Ag 9.411044e+00 1.739603e+01 0.000000e+00
 263 Ag 7.966744e+00 1.989773e+01 0.000000e+00
 264 Ag 8.063444e+00 1.798763e+01 2.572460e+00
 265 Ag 9.701344e+00 2.053763e+01 2.705910e+00
 266 Ag 7.612244e+00 1.649113e+01 4.835340e+00
 267 Ag 9.528044e+00 1.866313e+01 5.036910e+00
 268 Ag 9.411044e+00 2.239943e+01 0.000000e+00
 269 Ag 7.966744e+00 2.490113e+01 0.000000e+00
 270 Ag 8.162544e+00 2.320743e+01 2.379920e+00
 271 Ag 9.499544e+00 2.557773e+01 2.410360e+00
 272 Ag 7.795044e+00 2.130463e+01 4.953140e+00
 273 Ag 9.552644e+00 2.397323e+01 5.092920e+00
 274 Ag 9.411044e+00 2.740293e+01 0.000000e+00
 275 Ag 7.966744e+00 2.990463e+01 0.000000e+00
 276 Ag 7.897244e+00 2.776723e+01 2.255890e+00
 277 Ag 9.418744e+00 3.081813e+01 2.163510e+00
 278 Ag 7.755344e+00 2.663463e+01 4.857590e+00
 279 Ag 8.852444e+00 2.944983e+01 4.343950e+00
 280 Ag 9.411044e+00 3.240633e+01 0.000000e+00
 281 Ag 7.966744e+00 3.490803e+01 0.000000e+00
 282 Ag 7.901444e+00 3.331803e+01 2.317670e+00
 283 Ag 9.420844e+00 3.587583e+01 2.972910e+00
 284 Ag 3.862835e+01 1.102696e+01 7.485160e+00
 285 Ag 9.163444e+00 3.417563e+01 5.098840e+00
 286 Ag 9.411044e+00 3.740983e+01 0.000000e+00
 287 Ag 7.966744e+00 3.991153e+01 0.000000e+00
 288 Ag 7.809244e+00 3.804873e+01 2.370810e+00
 289 Ag 9.430444e+00 4.087393e+01 2.241790e+00
 290 Ag 7.609144e+00 3.633023e+01 5.099360e+00
 291 Ag 9.065344e+00 3.912383e+01 4.615170e+00
 292 Ag 9.411044e+00 4.241323e+01 0.000000e+00
 293 Ag 7.966744e+00 4.491493e+01 0.000000e+00
 294 Ag 7.997444e+00 4.337343e+01 2.450680e+00
 295 Ag 9.457644e+00 4.556133e+01 2.195910e+00
 296 Ag 7.805744e+00 4.165353e+01 4.678070e+00
 297 Ag 9.135044e+00 4.417883e+01 4.771470e+00
 298 Ag 9.411044e+00 4.741673e+01 0.000000e+00
 299 Ag 7.966744e+00 4.991843e+01 0.000000e+00
 300 Ag 7.973344e+00 4.826693e+01 2.454240e+00
 301 Ag 9.407944e+00 8.437187e-01 2.259100e+00
 302 Ag 8.157844e+00 4.682933e+01 4.843220e+00
 303 Ag 9.172444e+00 4.924243e+01 4.897840e+00
 304 Ag 1.229985e+01 2.385629e+00 0.000000e+00
 305 Ag 1.085545e+01 4.887351e+00 0.000000e+00
 306 Ag 1.093565e+01 3.174631e+00 2.359060e+00
 307 Ag 1.245995e+01 5.525121e+00 2.498990e+00
 308 Ag 1.111495e+01 1.947464e+00 4.990080e+00
 309 Ag 1.253135e+01 4.263851e+00 4.966750e+00
 310 Ag 1.229985e+01 7.389081e+00 0.000000e+00
 311 Ag 1.085545e+01 9.890801e+00 0.000000e+00
 312 Ag 1.090185e+01 8.027351e+00 2.638270e+00
 313 Ag 1.227255e+01 1.051448e+01 2.390790e+00
 314 Ag 1.094355e+01 6.717401e+00 5.224810e+00
 315 Ag 1.214425e+01 8.750311e+00 6.127160e+00
 316 Ag 1.229985e+01 1.239253e+01 0.000000e+00
 317 Ag 1.085545e+01 1.489423e+01 0.000000e+00
 318 Ag 1.081055e+01 1.305743e+01 2.408060e+00
 319 Ag 1.221725e+01 1.543133e+01 2.468020e+00
 320 Ag 1.079185e+01 1.140275e+01 5.472740e+00
 321 Ag 1.226145e+01 1.364973e+01 4.678000e+00
 322 Ag 1.229985e+01 1.739603e+01 0.000000e+00
 323 Ag 1.085545e+01 1.989773e+01 0.000000e+00
 324 Ag 1.085355e+01 1.813773e+01 2.566440e+00
 325 Ag 1.240915e+01 2.043793e+01 2.328290e+00
 326 Ag 1.084105e+01 1.640143e+01 5.119940e+00
 327 Ag 1.232405e+01 1.899313e+01 4.680060e+00
 328 Ag 1.229985e+01 2.239943e+01 0.000000e+00
 329 Ag 1.085545e+01 2.490113e+01 0.000000e+00
 330 Ag 1.099355e+01 2.292853e+01 2.773540e+00
 331 Ag 1.235235e+01 2.570683e+01 2.663840e+00
 332 Ag 1.060685e+01 2.137393e+01 5.487780e+00
 333 Ag 1.233535e+01 2.393073e+01 4.752940e+00
 334 Ag 1.229985e+01 2.740293e+01 0.000000e+00
 335 Ag 1.085545e+01 2.990463e+01 0.000000e+00
 336 Ag 1.066875e+01 2.826233e+01 2.541700e+00
 337 Ag 1.230405e+01 3.078483e+01 2.338280e+00
 338 Ag 1.064775e+01 2.665203e+01 4.778890e+00
 339 Ag 1.195975e+01 2.917983e+01 4.802370e+00
 340 Ag 1.229985e+01 3.240633e+01 0.000000e+00
 341 Ag 1.085545e+01 3.490803e+01 0.000000e+00
 342 Ag 1.061985e+01 3.324763e+01 2.222460e+00
 343 Ag 1.211575e+01 3.590183e+01 2.532630e+00
 344 Ag 1.048105e+01 3.151713e+01 4.447580e+00
 345 Ag 1.168555e+01 3.424383e+01 4.632010e+00
 346 Ag 1.229985e+01 3.740983e+01 0.000000e+00
 347 Ag 1.085545e+01 3.991153e+01 0.000000e+00
 348 Ag 1.063495e+01 3.821983e+01 2.367380e+00
 349 Ag 1.223155e+01 4.074243e+01 2.261630e+00
 350 Ag 1.053945e+01 3.677873e+01 5.378310e+00
 351 Ag 1.203965e+01 3.896363e+01 4.550640e+00
 352 Ag 1.229985e+01 4.241323e+01 0.000000e+00
 353 Ag 1.085545e+01 4.491493e+01 0.000000e+00
 354 Ag 1.078755e+01 4.319673e+01 2.643310e+00
 355 Ag 1.217315e+01 4.572133e+01 2.404340e+00
 356 Ag 1.060615e+01 4.151483e+01 4.873290e+00
 357 Ag 1.330295e+01 4.624733e+01 4.773880e+00
 358 Ag 1.229985e+01 4.741673e+01 0.000000e+00
 359 Ag 1.085545e+01 4.991843e+01 0.000000e+00
 360 Ag 1.059435e+01 4.817033e+01 2.667250e+00
 361 Ag 1.225055e+01 5.124187e-01 2.781190e+00
 362 Ag 1.070755e+01 4.679633e+01 5.329080e+00
 363 Ag 1.219445e+01 4.894733e+01 4.940100e+00
 364 Ag 1.518855e+01 2.385629e+00 0.000000e+00
 365 Ag 1.374425e+01 4.887351e+00 0.000000e+00
 366 Ag 1.376795e+01 3.047831e+00 2.480660e+00
 367 Ag 1.519355e+01 5.549431e+00 2.389680e+00
 368 Ag 1.378145e+01 1.267096e+00 4.881900e+00
 369 Ag 1.533505e+01 3.967401e+00 4.671110e+00
 370 Ag 1.518855e+01 7.389081e+00 0.000000e+00
 371 Ag 1.374425e+01 9.890801e+00 0.000000e+00
 372 Ag 1.386825e+01 8.224161e+00 2.588910e+00
 373 Ag 1.533855e+01 1.082256e+01 2.161640e+00
 374 Ag 1.380865e+01 6.638961e+00 5.052220e+00
 375 Ag 1.537485e+01 8.683941e+00 6.040580e+00
 376 Ag 1.518855e+01 1.239253e+01 0.000000e+00
 377 Ag 1.374425e+01 1.489423e+01 0.000000e+00
 378 Ag 1.367465e+01 1.303453e+01 2.477690e+00
 379 Ag 1.520945e+01 1.571853e+01 2.411490e+00
 380 Ag 1.346335e+01 1.105337e+01 4.600490e+00
 381 Ag 1.493415e+01 1.367483e+01 4.914120e+00
 382 Ag 1.518855e+01 1.739603e+01 0.000000e+00
 383 Ag 1.374425e+01 1.989773e+01 0.000000e+00
 384 Ag 1.366815e+01 1.801363e+01 2.376420e+00
 385 Ag 1.507395e+01 2.052943e+01 2.306410e+00
 386 Ag 1.355545e+01 1.645333e+01 4.796610e+00
 387 Ag 2.950635e+01 1.887443e+01 4.866930e+00
 388 Ag 1.518855e+01 2.239943e+01 0.000000e+00
 389 Ag 1.374425e+01 2.490113e+01 0.000000e+00
 390 Ag 1.362125e+01 2.317913e+01 2.410610e+00
 391 Ag 1.515915e+01 2.564603e+01 2.349830e+00
 392 Ag 1.356855e+01 2.130143e+01 4.627060e+00
 393 Ag 1.524325e+01 2.398413e+01 4.852760e+00
 394 Ag 1.518855e+01 2.740293e+01 0.000000e+00
 395 Ag 1.374425e+01 2.990463e+01 0.000000e+00
 396 Ag 1.363245e+01 2.823483e+01 2.435200e+00
 397 Ag 1.516305e+01 3.075713e+01 2.385230e+00
 398 Ag 1.367055e+01 2.636373e+01 5.035330e+00
 399 Ag 1.484065e+01 2.895283e+01 4.764190e+00
 400 Ag 1.518855e+01 3.240633e+01 0.000000e+00
 401 Ag 1.374425e+01 3.490803e+01 0.000000e+00
 402 Ag 1.364165e+01 3.348043e+01 2.693930e+00
 403 Ag 1.521505e+01 3.583173e+01 2.436410e+00
 404 Ag 1.347235e+01 3.172603e+01 4.835490e+00
 405 Ag 1.507655e+01 3.442063e+01 5.211180e+00
 406 Ag 1.518855e+01 3.740983e+01 0.000000e+00
 407 Ag 1.374425e+01 3.991153e+01 0.000000e+00
 408 Ag 1.374755e+01 3.833853e+01 2.090620e+00
 409 Ag 1.519115e+01 4.087383e+01 2.436530e+00
 410 Ag 1.339705e+01 3.670083e+01 5.140590e+00
 411 Ag 1.484265e+01 3.910733e+01 4.596120e+00
 412 Ag 1.518855e+01 4.241323e+01 0.000000e+00
 413 Ag 1.374425e+01 4.491493e+01 0.000000e+00
 414 Ag 1.385555e+01 4.166903e+01 4.941170e+00
 415 Ag 1.532185e+01 4.596563e+01 2.390200e+00
 416 Ag 1.671715e+01 4.163923e+01 4.477770e+00
 417 Ag 1.389305e+01 4.340583e+01 2.211650e+00
 418 Ag 1.518855e+01 4.741673e+01 0.000000e+00
 419 Ag 1.374425e+01 4.991843e+01 0.000000e+00
 420 Ag 1.365895e+01 4.821053e+01 2.513680e+00
 421 Ag 1.509755e+01 5.572187e-01 2.324490e+00
 422 Ag 1.205875e+01 4.372553e+01 5.015320e+00
 423 Ag 1.513085e+01 4.904453e+01 4.718880e+00
 424 Ag 1.807735e+01 2.385629e+00 0.000000e+00
 425 Ag 1.663295e+01 4.887351e+00 0.000000e+00
 426 Ag 1.689965e+01 3.143031e+00 2.692790e+00
 427 Ag 1.787925e+01 5.706101e+00 2.388570e+00
 428 Ag 1.663845e+01 1.537707e+00 4.849880e+00
 429 Ag 1.819805e+01 4.018011e+00 4.890380e+00
 430 Ag 1.807735e+01 7.389081e+00 0.000000e+00
 431 Ag 1.663295e+01 9.890801e+00 0.000000e+00
 432 Ag 1.658415e+01 8.480731e+00 2.692590e+00
 433 Ag 1.819285e+01 1.086257e+01 2.555190e+00
 434 Ag 1.675205e+01 6.571971e+00 4.713700e+00
 435 Ag 1.810905e+01 8.794221e+00 5.586230e+00
 436 Ag 1.807735e+01 1.239253e+01 0.000000e+00
 437 Ag 1.663295e+01 1.489423e+01 0.000000e+00
 438 Ag 1.656905e+01 1.326113e+01 2.519060e+00
 439 Ag 1.794375e+01 1.562863e+01 2.223720e+00
 440 Ag 1.640305e+01 1.114396e+01 4.764840e+00
 441 Ag 1.815885e+01 1.394923e+01 4.745410e+00
 442 Ag 1.807735e+01 1.739603e+01 0.000000e+00
 443 Ag 1.663295e+01 1.989773e+01 0.000000e+00
 444 Ag 1.659835e+01 1.825443e+01 2.560070e+00
 445 Ag 1.819105e+01 2.070323e+01 2.440160e+00
 446 Ag 1.534445e+01 1.891663e+01 5.119840e+00
 447 Ag 1.800425e+01 1.881863e+01 5.072840e+00
 448 Ag 1.807735e+01 2.239943e+01 0.000000e+00
 449 Ag 1.663295e+01 2.490113e+01 0.000000e+00
 450 Ag 1.655305e+01 2.291983e+01 2.388630e+00
 451 Ag 1.795595e+01 2.585103e+01 2.569930e+00
 452 Ag 1.644045e+01 2.124103e+01 4.728250e+00
 453 Ag 1.922475e+01 2.672003e+01 5.055660e+00
 454 Ag 1.807735e+01 2.740293e+01 0.000000e+00
 455 Ag 1.663295e+01 2.990463e+01 0.000000e+00
 456 Ag 1.632035e+01 2.830793e+01 2.577020e+00
 457 Ag 1.805395e+01 3.060843e+01 2.298610e+00
 458 Ag 1.647275e+01 2.650393e+01 4.477540e+00
 459 Ag 2.097865e+01 2.412463e+01 4.594890e+00
 460 Ag 1.807735e+01 3.240633e+01 0.000000e+00
 461 Ag 1.663295e+01 3.490803e+01 0.000000e+00
 462 Ag 1.658655e+01 3.325393e+01 2.337410e+00
 463 Ag 1.791085e+01 3.572123e+01 2.281890e+00
 464 Ag 1.636585e+01 3.168333e+01 4.706320e+00
 465 Ag 1.786825e+01 3.409933e+01 4.751530e+00
 466 Ag 1.807735e+01 3.740983e+01 0.000000e+00
 467 Ag 1.663295e+01 3.991153e+01 0.000000e+00
 468 Ag 1.683315e+01 3.872663e+01 2.436880e+00
 469 Ag 1.827435e+01 4.097583e+01 2.433110e+00
 470 Ag 1.652845e+01 3.693893e+01 4.574330e+00
 471 Ag 1.840955e+01 3.941363e+01 4.714140e+00
 472 Ag 1.807735e+01 4.241323e+01 0.000000e+00
 473 Ag 1.663295e+01 4.491493e+01 0.000000e+00
 474 Ag 1.697515e+01 4.369903e+01 2.658310e+00
 475 Ag 1.833455e+01 4.602953e+01 2.400060e+00
 476 Ag 1.830505e+01 4.432403e+01 5.118920e+00
 477 Ag 1.525435e+01 4.397003e+01 5.183740e+00
 478 Ag 1.807735e+01 4.741673e+01 0.000000e+00
 479 Ag 1.663295e+01 4.991843e+01 0.000000e+00
 480 Ag 1.664995e+01 4.828313e+01 2.423480e+00
 481 Ag 1.825465e+01 6.693187e-01 2.438340e+00
 482 Ag 1.623215e+01 4.644883e+01 4.726060e+00
 483 Ag 1.808305e+01 4.907143e+01 4.874810e+00
 484 Ag 2.096605e+01 2.385629e+00 0.000000e+00
 485 Ag 1.952165e+01 4.887351e+00 0.000000e+00
 486 Ag 1.962235e+01 3.376601e+00 2.420020e+00
 487 Ag 2.109305e+01 5.809541e+00 2.367340e+00
 488 Ag 1.950885e+01 1.567923e+00 5.000810e+00
 489 Ag 2.098945e+01 3.652611e+00 4.962730e+00
 490 Ag 2.096605e+01 7.389081e+00 0.000000e+00
 491 Ag 1.952165e+01 9.890801e+00 0.000000e+00
 492 Ag 1.948035e+01 8.140591e+00 2.302790e+00
 493 Ag 2.099155e+01 1.086661e+01 2.359860e+00
 494 Ag 1.943995e+01 6.454991e+00 4.875950e+00
 495 Ag 2.078815e+01 8.890721e+00 4.542160e+00
 496 Ag 2.096605e+01 1.239253e+01 0.000000e+00
 497 Ag 1.952165e+01 1.489423e+01 0.000000e+00
 498 Ag 1.939905e+01 1.323003e+01 2.437080e+00
 499 Ag 2.113535e+01 1.576253e+01 2.582280e+00
 500 Ag 1.940855e+01 1.175733e+01 4.867510e+00
 501 Ag 2.100835e+01 1.395493e+01 4.615660e+00
 502 Ag 2.096605e+01 1.739603e+01 0.000000e+00
 503 Ag 1.952165e+01 1.989773e+01 0.000000e+00
 504 Ag 1.954755e+01 1.813993e+01 2.575460e+00
 505 Ag 2.105025e+01 2.100563e+01 2.345280e+00
 506 Ag 1.943275e+01 1.643823e+01 4.507830e+00
 507 Ag 2.089165e+01 1.884033e+01 4.931050e+00
 508 Ag 2.096605e+01 2.239943e+01 0.000000e+00
 509 Ag 1.952165e+01 2.490113e+01 0.000000e+00
 510 Ag 1.932055e+01 2.338753e+01 2.427320e+00
 511 Ag 2.080115e+01 2.581653e+01 2.202790e+00
 512 Ag 1.935485e+01 2.138753e+01 4.804970e+00
 513 Ag 1.799795e+01 2.391423e+01 4.807580e+00
 514 Ag 2.096605e+01 2.740293e+01 0.000000e+00
 515 Ag 1.952165e+01 2.990463e+01 0.000000e+00
 516 Ag 1.951925e+01 2.820893e+01 2.501100e+00
 517 Ag 2.067185e+01 3.079213e+01 2.233180e+00
 518 Ag 2.226255e+01 2.677243e+01 4.667950e+00
 519 Ag 2.533895e+01 2.152063e+01 4.948730e+00
 520 Ag 2.096605e+01 3.240633e+01 0.000000e+00
 521 Ag 1.952165e+01 3.490803e+01 0.000000e+00
 522 Ag 1.945735e+01 3.321563e+01 2.219940e+00
 523 Ag 2.091255e+01 3.545423e+01 2.591010e+00
 524 Ag 2.525475e+01 3.158563e+01 4.731080e+00
 525 Ag 2.088985e+01 3.401213e+01 4.744970e+00
 526 Ag 2.096605e+01 3.740983e+01 0.000000e+00
 527 Ag 1.952165e+01 3.991153e+01 0.000000e+00
 528 Ag 1.952165e+01 3.817283e+01 2.545510e+00
 529 Ag 2.097385e+01 4.080803e+01 2.256650e+00
 530 Ag 1.927595e+01 3.651463e+01 4.737280e+00
 531 Ag 2.251425e+01 4.165033e+01 4.507860e+00
 532 Ag 2.096605e+01 4.241323e+01 0.000000e+00
 533 Ag 1.952165e+01 4.491493e+01 0.000000e+00
 534 Ag 1.959475e+01 4.334503e+01 2.350360e+00
 535 Ag 2.111915e+01 4.581823e+01 2.219170e+00
 536 Ag 2.110405e+01 3.887493e+01 4.424000e+00
 537 Ag 1.976625e+01 4.185583e+01 5.420720e+00
 538 Ag 2.096605e+01 4.741673e+01 0.000000e+00
 539 Ag 1.952165e+01 4.991843e+01 0.000000e+00
 540 Ag 1.958115e+01 4.841273e+01 2.248560e+00
 541 Ag 2.111465e+01 8.478187e-01 2.432830e+00
 542 Ag 2.001305e+01 4.659413e+01 4.943340e+00
 543 Ag 2.109195e+01 4.912773e+01 5.073290e+00
 544 Ag 2.385485e+01 2.385629e+00 0.000000e+00
 545 Ag 2.241045e+01 4.887351e+00 0.000000e+00
 546 Ag 2.257325e+01 3.108051e+00 2.448860e+00
 547 Ag 2.407985e+01 6.070511e+00 2.769810e+00
 548 Ag 2.265975e+01 1.340719e+00 4.897920e+00
 549 Ag 2.391575e+01 3.985441e+00 4.703590e+00
 550 Ag 2.385485e+01 7.389081e+00 0.000000e+00
 551 Ag 2.241045e+01 9.890801e+00 0.000000e+00
 552 Ag 2.251305e+01 8.286851e+00 2.370880e+00
 553 Ag 2.382525e+01 1.067890e+01 2.410030e+00
 554 Ag 2.248375e+01 6.282611e+00 4.992640e+00
 555 Ag 2.689475e+01 8.825771e+00 4.807900e+00
 556 Ag 2.385485e+01 1.239253e+01 0.000000e+00
 557 Ag 2.241045e+01 1.489423e+01 0.000000e+00
 558 Ag 2.241245e+01 1.327513e+01 2.426280e+00
 559 Ag 2.410695e+01 1.569113e+01 2.327380e+00
 560 Ag 2.226025e+01 1.140490e+01 4.720530e+00
 561 Ag 2.382555e+01 1.397433e+01 4.689650e+00
 562 Ag 2.385485e+01 1.739603e+01 0.000000e+00
 563 Ag 2.241045e+01 1.989773e+01 0.000000e+00
 564 Ag 2.245105e+01 1.831643e+01 2.506220e+00
 565 Ag 2.405165e+01 2.065423e+01 2.654110e+00
 566 Ag 2.259745e+01 1.649823e+01 4.836550e+00
 567 Ag 2.385645e+01 1.913313e+01 4.993400e+00
 568 Ag 2.385485e+01 2.239943e+01 0.000000e+00
 569 Ag 2.241045e+01 2.490113e+01 0.000000e+00
 570 Ag 2.238305e+01 2.337943e+01 2.359020e+00
 571 Ag 2.407005e+01 2.562363e+01 2.276650e+00
 572 Ag 2.227725e+01 2.158023e+01 4.713210e+00
 573 Ag 1.783445e+01 2.920203e+01 4.595800e+00
 574 Ag 2.385485e+01 2.740293e+01 0.000000e+00
 575 Ag 2.241045e+01 2.990463e+01 0.000000e+00
 576 Ag 2.233595e+01 2.841063e+01 2.378430e+00
 577 Ag 2.368795e+01 3.072533e+01 2.606970e+00
 578 Ag 2.689665e+01 1.905263e+01 5.032210e+00
 579 Ag 2.237775e+01 3.155803e+01 4.998810e+00
 580 Ag 2.385485e+01 3.240633e+01 0.000000e+00
 581 Ag 2.241045e+01 3.490803e+01 0.000000e+00
 582 Ag 2.244075e+01 3.323233e+01 2.494990e+00
 583 Ag 2.372145e+01 3.571883e+01 2.351610e+00
 584 Ag 1.932025e+01 3.176883e+01 4.635090e+00
 585 Ag 2.376335e+01 3.429353e+01 4.570990e+00
 586 Ag 2.385485e+01 3.740983e+01 0.000000e+00
 587 Ag 2.241045e+01 3.991153e+01 0.000000e+00
 588 Ag 2.246005e+01 3.830493e+01 2.323060e+00
 589 Ag 2.379105e+01 4.072663e+01 2.427160e+00
 590 Ag 2.518275e+01 3.669033e+01 4.539280e+00
 591 Ag 3.125595e+01 4.188393e+01 4.764350e+00
 592 Ag 2.385485e+01 4.241323e+01 0.000000e+00
 593 Ag 2.241045e+01 4.491493e+01 0.000000e+00
 594 Ag 2.256685e+01 4.322203e+01 2.496460e+00
 595 Ag 2.383515e+01 4.566623e+01 2.991670e+00
 596 Ag 2.224245e+01 3.650553e+01 4.953510e+00
 597 Ag 2.111885e+01 4.418433e+01 4.946220e+00
 598 Ag 2.385485e+01 4.741673e+01 0.000000e+00
 599 Ag 2.241045e+01 4.991843e+01 0.000000e+00
 600 Ag 2.249145e+01 4.837513e+01 2.407710e+00
 601 Ag 2.405965e+01 5.852187e-01 2.399090e+00
 602 Ag 2.257025e+01 4.683343e+01 5.206580e+00
 603 Ag 2.417415e+01 4.915563e+01 4.837820e+00
 604 Ag 2.674355e+01 2.385629e+00 0.000000e+00
 605 Ag 2.529915e+01 4.887351e+00 0.000000e+00
 606 Ag 2.559795e+01 3.291491e+00 2.432420e+00
 607 Ag 2.667975e+01 5.735561e+00 2.427830e+00
 608 Ag 2.549705e+01 1.817172e+00 4.921580e+00
 609 Ag 2.668565e+01 4.357211e+00 4.785330e+00
 610 Ag 2.674355e+01 7.389081e+00 0.000000e+00
 611 Ag 2.529915e+01 9.890801e+00 0.000000e+00
 612 Ag 2.553395e+01 8.362981e+00 2.440770e+00
 613 Ag 2.683635e+01 1.064232e+01 2.279070e+00
 614 Ag 2.512675e+01 6.397121e+00 5.343730e+00
 615 Ag 3.716845e+01 1.140664e+01 4.719140e+00
 616 Ag 2.674355e+01 1.239253e+01 0.000000e+00
 617 Ag 2.529915e+01 1.489423e+01 0.000000e+00
 618 Ag 2.535225e+01 1.318163e+01 2.484270e+00
 619 Ag 2.695965e+01 1.555873e+01 2.585940e+00
 620 Ag 2.531035e+01 1.162943e+01 4.842470e+00
 621 Ag 2.682485e+01 1.391193e+01 5.049670e+00
 622 Ag 2.674355e+01 1.739603e+01 0.000000e+00
 623 Ag 2.529915e+01 1.989773e+01 0.000000e+00
 624 Ag 2.524555e+01 1.811963e+01 2.578350e+00
 625 Ag 2.676445e+01 2.057643e+01 2.518890e+00
 626 Ag 2.533195e+01 1.637483e+01 4.802190e+00
 627 Ag 1.670175e+01 1.620133e+01 4.893570e+00
 628 Ag 2.674355e+01 2.239943e+01 0.000000e+00
 629 Ag 2.529915e+01 2.490113e+01 0.000000e+00
 630 Ag 2.535565e+01 2.310293e+01 2.515080e+00
 631 Ag 2.813995e+01 2.670423e+01 4.623750e+00
 632 Ag 2.383765e+01 2.418393e+01 4.723700e+00
 633 Ag 2.537465e+01 2.662733e+01 4.668350e+00
 634 Ag 2.674355e+01 2.740293e+01 0.000000e+00
 635 Ag 2.529915e+01 2.990463e+01 0.000000e+00
 636 Ag 2.532075e+01 2.822133e+01 2.322020e+00
 637 Ag 2.662295e+01 3.083533e+01 2.368090e+00
 638 Ag 2.680725e+01 2.548033e+01 2.486610e+00
 639 Ag 2.073985e+01 2.935023e+01 4.647750e+00
 640 Ag 2.674355e+01 3.240633e+01 0.000000e+00
 641 Ag 2.529915e+01 3.490803e+01 0.000000e+00
 642 Ag 2.538685e+01 3.303193e+01 2.179810e+00
 643 Ag 2.669995e+01 3.579383e+01 2.250730e+00
 644 Ag 2.365205e+01 2.898413e+01 4.819380e+00
 645 Ag 2.987105e+01 3.426343e+01 4.819710e+00
 646 Ag 2.674355e+01 3.740983e+01 0.000000e+00
 647 Ag 2.529915e+01 3.991153e+01 0.000000e+00
 648 Ag 2.519705e+01 3.826373e+01 2.286990e+00
 649 Ag 2.662605e+01 4.077303e+01 2.278990e+00
 650 Ag 2.688135e+01 3.923543e+01 4.816510e+00
 651 Ag 2.532465e+01 4.138923e+01 4.627190e+00
 652 Ag 2.674355e+01 4.241323e+01 0.000000e+00
 653 Ag 2.529915e+01 4.491493e+01 0.000000e+00
 654 Ag 2.520565e+01 4.328893e+01 2.516750e+00
 655 Ag 2.670025e+01 4.563193e+01 2.553850e+00
 656 Ag 3.533005e+01 1.902353e+01 4.623890e+00
 657 Ag 2.804475e+01 4.665643e+01 6.138840e+00
 658 Ag 2.674355e+01 4.741673e+01 0.000000e+00
 659 Ag 2.529915e+01 4.991843e+01 0.000000e+00
 660 Ag 2.540705e+01 4.796113e+01 2.574240e+00
 661 Ag 2.667735e+01 6.034187e-01 2.310050e+00
 662 Ag 2.364825e+01 4.413103e+01 5.376080e+00
 663 Ag 2.546535e+01 4.694933e+01 5.215670e+00
 664 Ag 2.963225e+01 2.385629e+00 0.000000e+00
 665 Ag 2.818795e+01 4.887351e+00 0.000000e+00
 666 Ag 2.827995e+01 3.238941e+00 2.892540e+00
 667 Ag 2.951225e+01 5.673691e+00 2.230200e+00
 668 Ag 2.788445e+01 2.099339e+00 5.416230e+00
 669 Ag 2.961595e+01 3.908171e+00 5.601350e+00
 670 Ag 2.963225e+01 7.389081e+00 0.000000e+00
 671 Ag 2.818795e+01 9.890801e+00 0.000000e+00
 672 Ag 2.823765e+01 8.340391e+00 2.526070e+00
 673 Ag 2.981535e+01 1.066687e+01 2.331250e+00
 674 Ag 2.826535e+01 6.288681e+00 4.571930e+00
 675 Ag 2.976515e+01 8.744461e+00 4.798870e+00
 676 Ag 2.963225e+01 1.239253e+01 0.000000e+00
 677 Ag 2.818795e+01 1.489423e+01 0.000000e+00
 678 Ag 2.825275e+01 1.313103e+01 2.537300e+00
 679 Ag 2.972885e+01 1.549573e+01 2.664270e+00
 680 Ag 2.843315e+01 1.116651e+01 5.003530e+00
 681 Ag 2.958775e+01 1.373693e+01 5.013290e+00
 682 Ag 2.963225e+01 1.739603e+01 0.000000e+00
 683 Ag 2.818795e+01 1.989773e+01 0.000000e+00
 684 Ag 2.811545e+01 1.809883e+01 2.306620e+00
 685 Ag 2.959355e+01 2.081743e+01 2.288780e+00
 686 Ag 3.431875e+01 2.658833e+01 4.932530e+00
 687 Ag 2.814955e+01 1.646453e+01 4.864960e+00
 688 Ag 2.963225e+01 2.239943e+01 0.000000e+00
 689 Ag 2.818795e+01 2.490113e+01 0.000000e+00
 690 Ag 2.843475e+01 2.324163e+01 2.504850e+00
 691 Ag 2.968435e+01 2.605513e+01 2.424090e+00
 692 Ag 2.679205e+01 2.917143e+01 4.473370e+00
 693 Ag 2.843215e+01 2.146173e+01 4.986630e+00
 694 Ag 2.963225e+01 2.740293e+01 0.000000e+00
 695 Ag 2.818795e+01 2.990463e+01 0.000000e+00
 696 Ag 2.821705e+01 2.822833e+01 2.122500e+00
 697 Ag 2.968195e+01 3.048423e+01 2.241240e+00
 698 Ag 2.652315e+01 2.421333e+01 4.915540e+00
 699 Ag 2.960195e+01 2.910623e+01 4.852640e+00
 700 Ag 2.963225e+01 3.240633e+01 0.000000e+00
 701 Ag 2.818795e+01 3.490803e+01 0.000000e+00
 702 Ag 2.815495e+01 3.329483e+01 2.316810e+00
 703 Ag 2.982655e+01 3.566493e+01 2.437470e+00
 704 Ag 2.827215e+01 3.166723e+01 4.632960e+00
 705 Ag 2.680835e+01 3.396863e+01 4.691910e+00
 706 Ag 2.963225e+01 3.740983e+01 0.000000e+00
 707 Ag 2.818795e+01 3.991153e+01 0.000000e+00
 708 Ag 2.836145e+01 3.836193e+01 2.414970e+00
 709 Ag 2.963005e+01 4.073003e+01 2.434010e+00
 710 Ag 2.378685e+01 3.894303e+01 4.590620e+00
 711 Ag 3.250085e+01 4.428393e+01 5.030910e+00
 712 Ag 2.963225e+01 4.241323e+01 0.000000e+00
 713 Ag 2.818795e+01 4.491493e+01 0.000000e+00
 714 Ag 2.822805e+01 4.314513e+01 2.148670e+00
 715 Ag 3.096285e+01 4.670203e+01 5.220850e+00
 716 Ag 2.660885e+01 4.400293e+01 4.888740e+00
 717 Ag 2.811065e+01 4.178913e+01 5.002360e+00
 718 Ag 2.963225e+01 4.741673e+01 0.000000e+00
 719 Ag 2.818795e+01 4.991843e+01 0.000000e+00
 720 Ag 2.806715e+01 4.825673e+01 2.432560e+00
 721 Ag 2.982675e+01 8.223187e-01 2.370700e+00
 722 Ag 2.715605e+01 4.949943e+01 4.889550e+00
 723 Ag 3.257155e+01 4.876133e+01 4.817540e+00
 724 Ag 3.252105e+01 2.385629e+00 0.000000e+00
 725 Ag 3.107665e+01 4.887351e+00 0.000000e+00
 726 Ag 3.091365e+01 3.330991e+00 2.422520e+00
 727 Ag 3.251385e+01 5.451341e+00 2.326410e+00
 728 Ag 3.100695e+01 1.549385e+00 4.853080e+00
 729 Ag 3.247035e+01 3.929911e+00 4.829210e+00
 730 Ag 3.252105e+01 7.389081e+00 0.000000e+00
 731 Ag 3.107665e+01 9.890801e+00 0.000000e+00
 732 Ag 3.106655e+01 7.880271e+00 2.274740e+00
 733 Ag 3.260275e+01 1.028716e+01 2.590610e+00
 734 Ag 3.104285e+01 6.064851e+00 4.381290e+00
 735 Ag 3.244055e+01 8.562681e+00 4.755830e+00
 736 Ag 3.252105e+01 1.239253e+01 0.000000e+00
 737 Ag 3.107665e+01 1.489423e+01 0.000000e+00
 738 Ag 3.123555e+01 1.318593e+01 2.676050e+00
 739 Ag 3.249555e+01 1.572723e+01 2.288680e+00
 740 Ag 3.126275e+01 1.126053e+01 4.840390e+00
 741 Ag 3.238925e+01 1.371583e+01 5.105120e+00
 742 Ag 3.252105e+01 1.739603e+01 0.000000e+00
 743 Ag 3.107665e+01 1.989773e+01 0.000000e+00
 744 Ag 3.101225e+01 1.802403e+01 2.695050e+00
 745 Ag 3.263825e+01 2.048533e+01 2.332280e+00
 746 Ag 3.089365e+01 1.626993e+01 5.171500e+00
 747 Ag 3.264555e+01 1.903353e+01 4.733380e+00
 748 Ag 3.252105e+01 2.239943e+01 0.000000e+00
 749 Ag 3.107665e+01 2.490113e+01 0.000000e+00
 750 Ag 3.126915e+01 2.335463e+01 2.263930e+00
 751 Ag 3.285455e+01 2.570423e+01 2.556090e+00
 752 Ag 3.126635e+01 2.142373e+01 4.350750e+00
 753 Ag 3.283735e+01 2.403823e+01 4.725050e+00
 754 Ag 3.252105e+01 2.740293e+01 0.000000e+00
 755 Ag 3.107665e+01 2.990463e+01 0.000000e+00
 756 Ag 3.128475e+01 2.824003e+01 2.519020e+00
 757 Ag 3.246935e+01 3.080913e+01 2.421950e+00
 758 Ag 2.996845e+01 2.422733e+01 4.719440e+00
 759 Ag 3.241575e+01 2.930773e+01 4.859560e+00
 760 Ag 3.252105e+01 3.240633e+01 0.000000e+00
 761 Ag 3.107665e+01 3.490803e+01 0.000000e+00
 762 Ag 3.121345e+01 3.343523e+01 2.359700e+00
 763 Ag 3.264365e+01 3.581133e+01 2.466840e+00
 764 Ag 3.088975e+01 3.169753e+01 4.465510e+00
 765 Ag 3.258695e+01 3.411733e+01 4.970470e+00
 766 Ag 3.252105e+01 3.740983e+01 0.000000e+00
 767 Ag 3.107665e+01 3.991153e+01 0.000000e+00
 768 Ag 3.107725e+01 3.841343e+01 2.282180e+00
 769 Ag 3.251125e+01 4.084833e+01 2.559930e+00
 770 Ag 3.722545e+01 3.658833e+01 4.590580e+00
 771 Ag 2.818755e+01 3.656713e+01 4.575600e+00
 772 Ag 3.252105e+01 4.241323e+01 0.000000e+00
 773 Ag 3.107665e+01 4.491493e+01 0.000000e+00
 774 Ag 3.108435e+01 4.331583e+01 2.357450e+00
 775 Ag 3.249815e+01 4.572643e+01 2.621700e+00
 776 Ag 3.439495e+01 4.185593e+01 4.762570e+00
 777 Ag 2.942505e+01 4.438273e+01 4.391340e+00
 778 Ag 3.252105e+01 4.741673e+01 0.000000e+00
 779 Ag 3.107665e+01 4.991843e+01 0.000000e+00
 780 Ag 3.074685e+01 4.810963e+01 2.332810e+00
 781 Ag 3.251285e+01 3.689187e-01 2.485560e+00
 782 Ag 2.958685e+01 4.568183e+01 2.141950e+00
 783 Ag 2.975705e+01 4.911963e+01 5.368930e+00
 784 Ag 3.540975e+01 2.385629e+00 0.000000e+00
 785 Ag 3.396545e+01 4.887351e+00 0.000000e+00
 786 Ag 3.396535e+01 3.085191e+00 2.681940e+00
 787 Ag 3.547545e+01 5.381741e+00 2.716270e+00
 788 Ag 3.381775e+01 1.323519e+00 4.956560e+00
 789 Ag 3.520685e+01 3.562781e+00 5.559740e+00
 790 Ag 3.540975e+01 7.389081e+00 0.000000e+00
 791 Ag 3.396545e+01 9.890801e+00 0.000000e+00
 792 Ag 3.411105e+01 7.686571e+00 2.678900e+00
 793 Ag 3.552015e+01 1.073593e+01 2.482260e+00
 794 Ag 3.401705e+01 6.284201e+00 4.986460e+00
 795 Ag 3.556715e+01 9.118811e+00 4.618790e+00
 796 Ag 3.540975e+01 1.239253e+01 0.000000e+00
 797 Ag 3.396545e+01 1.489423e+01 0.000000e+00
 798 Ag 3.404275e+01 1.308053e+01 2.343310e+00
 799 Ag 3.529115e+01 1.552403e+01 2.279200e+00
 800 Ag 3.407055e+01 1.136340e+01 5.160810e+00
 801 Ag 3.530255e+01 1.389063e+01 4.747640e+00
 802 Ag 3.540975e+01 1.739603e+01 0.000000e+00
 803 Ag 3.396545e+01 1.989773e+01 0.000000e+00
 804 Ag 3.397085e+01 1.809243e+01 2.388570e+00
 805 Ag 3.535635e+01 2.083083e+01 2.400430e+00
 806 Ag 2.382785e+01 8.966611e+00 4.722430e+00
 807 Ag 3.392405e+01 1.633183e+01 4.553400e+00
 808 Ag 3.540975e+01 2.239943e+01 0.000000e+00
 809 Ag 3.396545e+01 2.490113e+01 0.000000e+00
 810 Ag 3.407565e+01 2.311053e+01 2.229410e+00
 811 Ag 3.553445e+01 2.557573e+01 2.297090e+00
 812 Ag 3.377425e+01 2.153783e+01 4.663680e+00
 813 Ag 3.558585e+01 2.381003e+01 4.768660e+00
 814 Ag 3.540975e+01 2.740293e+01 0.000000e+00
 815 Ag 3.396545e+01 2.990463e+01 0.000000e+00
 816 Ag 3.411585e+01 2.819863e+01 2.726190e+00
 817 Ag 3.519065e+01 3.085403e+01 2.321700e+00
 818 Ag 3.143465e+01 2.663643e+01 4.838710e+00
 819 Ag 3.532335e+01 2.910123e+01 5.544330e+00
 820 Ag 3.540975e+01 3.240633e+01 0.000000e+00
 821 Ag 3.396545e+01 3.490803e+01 0.000000e+00
 822 Ag 3.416185e+01 3.357013e+01 2.643320e+00
 823 Ag 3.540805e+01 3.609753e+01 2.437610e+00
 824 Ag 3.392955e+01 3.166753e+01 4.627160e+00
 825 Ag 4.115155e+01 3.392313e+01 6.010140e+00
 826 Ag 3.540975e+01 3.740983e+01 0.000000e+00
 827 Ag 3.396545e+01 3.991153e+01 0.000000e+00
 828 Ag 3.388575e+01 3.838593e+01 2.466370e+00
 829 Ag 3.539265e+01 4.090943e+01 2.376710e+00
 830 Ag 3.091525e+01 3.673363e+01 4.776920e+00
 831 Ag 3.261315e+01 3.914133e+01 4.781700e+00
 832 Ag 3.540975e+01 4.241323e+01 0.000000e+00
 833 Ag 3.396545e+01 4.491493e+01 0.000000e+00
 834 Ag 3.402195e+01 4.341623e+01 2.528120e+00
 835 Ag 3.539735e+01 4.593773e+01 2.532230e+00
 836 Ag 3.539655e+01 4.435613e+01 5.294020e+00
 837 Ag 4.129665e+01 4.417733e+01 5.171280e+00
 838 Ag 3.540975e+01 4.741673e+01 0.000000e+00
 839 Ag 3.396545e+01 4.991843e+01 0.000000e+00
 840 Ag 3.355455e+01 4.810813e+01 2.409830e+00
 841 Ag 3.524935e+01 4.897187e-01 2.402310e+00
 842 Ag 3.383665e+01 4.678583e+01 5.871780e+00
 843 Ag 3.533425e+01 4.891383e+01 4.577830e+00
 844 Ag 3.829855e+01 2.385629e+00 0.000000e+00
 845 Ag 3.685415e+01 4.887351e+00 0.000000e+00
 846 Ag 3.689375e+01 3.038311e+00 2.273950e+00
 847 Ag 3.794945e+01 5.741401e+00 2.679720e+00
 848 Ag 3.668105e+01 1.304519e+00 4.690710e+00
 849 Ag 3.812745e+01 4.081721e+00 5.017740e+00
 850 Ag 3.829855e+01 7.389081e+00 0.000000e+00
 851 Ag 3.685415e+01 9.890801e+00 0.000000e+00
 852 Ag 3.689875e+01 8.124651e+00 2.369120e+00
 853 Ag 3.822535e+01 1.050849e+01 2.446090e+00
 854 Ag 3.673735e+01 6.617251e+00 5.193060e+00
 855 Ag 3.858805e+01 8.501561e+00 5.740400e+00
 856 Ag 3.829855e+01 1.239253e+01 0.000000e+00
 857 Ag 3.685415e+01 1.489423e+01 0.000000e+00
 858 Ag 3.697265e+01 1.306343e+01 2.529540e+00
 859 Ag 3.812145e+01 1.575763e+01 2.686260e+00
 860 Ag 3.986285e+01 1.163043e+01 4.397010e+00
 861 Ag 3.816705e+01 1.394273e+01 5.066020e+00
 862 Ag 3.829855e+01 1.739603e+01 0.000000e+00
 863 Ag 3.685415e+01 1.989773e+01 0.000000e+00
 864 Ag 3.675265e+01 1.821373e+01 2.126460e+00
 865 Ag 3.821555e+01 2.065703e+01 2.317370e+00
 866 Ag 3.717745e+01 1.655233e+01 4.801580e+00
 867 Ag 3.801095e+01 1.904463e+01 4.915340e+00
 868 Ag 3.829855e+01 2.239943e+01 0.000000e+00
 869 Ag 3.685415e+01 2.490113e+01 0.000000e+00
 870 Ag 3.692825e+01 2.326063e+01 2.380900e+00
 871 Ag 3.842055e+01 2.551223e+01 2.474390e+00
 872 Ag 3.668725e+01 2.136163e+01 4.677120e+00
 873 Ag 3.819315e+01 2.378543e+01 4.870760e+00
 874 Ag 3.829855e+01 2.740293e+01 0.000000e+00
 875 Ag 3.685415e+01 2.990463e+01 0.000000e+00
 876 Ag 3.666925e+01 2.838323e+01 2.339960e+00
 877 Ag 3.819865e+01 3.073873e+01 2.432960e+00
 878 Ag 3.697555e+01 2.674173e+01 4.583940e+00
 879 Ag 3.842585e+01 2.910833e+01 4.851030e+00
 880 Ag 3.829855e+01 3.240633e+01 0.000000e+00
 881 Ag 3.685415e+01 3.490803e+01 0.000000e+00
 882 Ag 3.709655e+01 3.322813e+01 2.392080e+00
 883 Ag 3.833585e+01 3.576433e+01 2.140780e+00
 884 Ag 4.281665e+01 3.644543e+01 5.101700e+00
 885 Ag 3.849585e+01 3.418463e+01 4.492440e+00
 886 Ag 3.829855e+01 3.740983e+01 0.000000e+00
 887 Ag 3.685415e+01 3.991153e+01 0.000000e+00
 888 Ag 3.429635e+01 3.704003e+01 4.770670e+00
 889 Ag 3.829855e+01 4.093573e+01 2.334550e+00
 890 Ag 2.967815e+01 3.938013e+01 5.010880e+00
 891 Ag 3.578805e+01 3.909383e+01 4.491300e+00
 892 Ag 3.829855e+01 4.241323e+01 0.000000e+00
 893 Ag 3.685415e+01 4.491493e+01 0.000000e+00
 894 Ag 3.679635e+01 4.335883e+01 2.770140e+00
 895 Ag 3.835475e+01 4.571573e+01 2.654730e+00
 896 Ag 3.706005e+01 4.163433e+01 4.901450e+00
 897 Ag 3.688515e+01 3.849653e+01 2.270670e+00
 898 Ag 3.829855e+01 4.741673e+01 0.000000e+00
 899 Ag 3.685415e+01 4.991843e+01 0.000000e+00
 900 Ag 3.703535e+01 4.817903e+01 2.484980e+00
 901 Ag 3.853545e+01 8.028187e-01 2.559400e+00
 902 Ag 3.682995e+01 4.668243e+01 4.825700e+00
 903 Ag 3.875815e+01 4.925073e+01 5.017960e+00
 904 Ag 4.118725e+01 2.385629e+00 0.000000e+00
 905 Ag 3.974285e+01 4.887351e+00 0.000000e+00
 906 Ag 3.961765e+01 3.292481e+00 2.620380e+00
 907 Ag 4.130165e+01 5.729861e+00 2.232570e+00
 908 Ag 3.946735e+01 1.685547e+00 4.976490e+00
 909 Ag 4.128545e+01 3.925761e+00 4.972590e+00
 910 Ag 4.118725e+01 7.389081e+00 0.000000e+00
 911 Ag 3.974285e+01 9.890801e+00 0.000000e+00
 912 Ag 3.964935e+01 8.190291e+00 2.703010e+00
 913 Ag 4.107725e+01 1.064351e+01 2.110470e+00
 914 Ag 3.990975e+01 6.248411e+00 4.788260e+00
 915 Ag 4.106695e+01 9.211081e+00 5.439080e+00
 916 Ag 4.118725e+01 1.239253e+01 0.000000e+00
 917 Ag 3.974285e+01 1.489423e+01 0.000000e+00
 918 Ag 3.986075e+01 1.345733e+01 2.395060e+00
 919 Ag 4.144845e+01 1.578333e+01 2.445380e+00
 920 Ag 4.233555e+01 1.193013e+01 5.470310e+00
 921 Ag 3.994865e+01 1.680023e+01 4.738300e+00
 922 Ag 4.118725e+01 1.739603e+01 0.000000e+00
 923 Ag 3.974285e+01 1.989773e+01 0.000000e+00
 924 Ag 3.951385e+01 1.802523e+01 2.396320e+00
 925 Ag 4.114985e+01 2.044013e+01 2.482580e+00
 926 Ag 4.647844e+00 3.152373e+01 5.562390e+00
 927 Ag 4.128265e+01 1.917443e+01 6.009540e+00
 928 Ag 4.118725e+01 2.239943e+01 0.000000e+00
 929 Ag 3.974285e+01 2.490113e+01 0.000000e+00
 930 Ag 3.977565e+01 2.305283e+01 2.468890e+00
 931 Ag 4.127635e+01 2.571173e+01 2.341680e+00
 932 Ag 3.965015e+01 2.142833e+01 4.740500e+00
 933 Ag 4.104995e+01 2.406813e+01 4.655520e+00
 934 Ag 4.118725e+01 2.740293e+01 0.000000e+00
 935 Ag 3.974285e+01 2.990463e+01 0.000000e+00
 936 Ag 3.959495e+01 2.810653e+01 2.586590e+00
 937 Ag 4.128625e+01 3.035353e+01 2.364750e+00
 938 Ag 4.006175e+01 2.661713e+01 5.209480e+00
 939 Ag 4.109365e+01 2.948033e+01 4.839610e+00
 940 Ag 4.118725e+01 3.240633e+01 0.000000e+00
 941 Ag 3.974285e+01 3.490803e+01 0.000000e+00
 942 Ag 4.006935e+01 3.307783e+01 2.402590e+00
 943 Ag 4.111345e+01 3.569433e+01 2.386820e+00
 944 Ag 3.659405e+01 3.144443e+01 4.570870e+00
 945 Ag 3.968005e+01 3.153593e+01 4.943890e+00
 946 Ag 4.118725e+01 3.740983e+01 0.000000e+00
 947 Ag 3.974285e+01 3.991153e+01 0.000000e+00
 948 Ag 3.964495e+01 3.834023e+01 2.322300e+00
 949 Ag 4.109865e+01 4.081223e+01 2.513060e+00
 950 Ag 3.533725e+01 3.410203e+01 4.972620e+00
 951 Ag 4.121235e+01 3.914933e+01 4.753790e+00
 952 Ag 4.118725e+01 4.241323e+01 0.000000e+00
 953 Ag 3.974285e+01 4.491493e+01 0.000000e+00
 954 Ag 3.974595e+01 4.332323e+01 2.588270e+00
 955 Ag 4.134615e+01 4.571863e+01 2.232520e+00
 956 Ag 3.808695e+01 4.412613e+01 4.975550e+00
 957 Ag 4.014735e+01 4.192543e+01 5.445020e+00
 958 Ag 4.118725e+01 4.741673e+01 0.000000e+00
 959 Ag 3.974285e+01 4.991843e+01 0.000000e+00
 960 Ag 3.965035e+01 4.818093e+01 2.608510e+00
 961 Ag 4.116545e+01 7.001187e-01 2.356670e+00
 962 Ag 3.969625e+01 4.664223e+01 5.254900e+00
 963 Ag 4.136425e+01 4.937193e+01 4.715460e+00
 964 Ag 4.407605e+01 2.385629e+00 0.000000e+00
 965 Ag 4.263165e+01 4.887351e+00 0.000000e+00
 966 Ag 4.257825e+01 2.975321e+00 2.660630e+00
 967 Ag 4.418755e+01 5.746491e+00 2.487110e+00
 968 Ag 4.253155e+01 1.562972e+00 5.738840e+00
 969 Ag 4.419735e+01 4.287051e+00 5.440320e+00
 970 Ag 4.407605e+01 7.389081e+00 0.000000e+00
 971 Ag 4.263165e+01 9.890801e+00 0.000000e+00
 972 Ag 4.280605e+01 8.369031e+00 2.249570e+00
 973 Ag 4.411325e+01 1.090802e+01 2.400210e+00
 974 Ag 4.253575e+01 6.714851e+00 4.337850e+00
 975 Ag 4.400895e+01 9.185571e+00 4.674960e+00
 976 Ag 4.407605e+01 1.239253e+01 0.000000e+00
 977 Ag 4.263165e+01 1.489423e+01 0.000000e+00
 978 Ag 4.261625e+01 1.325273e+01 2.601470e+00
 979 Ag 4.431225e+01 1.596463e+01 2.642550e+00
 980 Ag 4.094615e+01 1.429853e+01 5.144210e+00
 981 Ag 4.404065e+01 1.430053e+01 4.856340e+00
 982 Ag 4.407605e+01 1.739603e+01 0.000000e+00
 983 Ag 4.263165e+01 1.989773e+01 0.000000e+00
 984 Ag 4.289835e+01 1.825463e+01 2.711010e+00
 985 Ag 4.419325e+01 2.066623e+01 2.517440e+00
 986 Ag 4.266905e+01 1.666713e+01 5.013670e+00
 987 Ag 4.424945e+01 1.937453e+01 4.926530e+00
 988 Ag 4.407605e+01 2.239943e+01 0.000000e+00
 989 Ag 4.263165e+01 2.490113e+01 0.000000e+00
 990 Ag 4.247515e+01 2.327073e+01 2.134860e+00
 991 Ag 4.411545e+01 2.571493e+01 2.295390e+00
 992 Ag 4.249445e+01 2.162883e+01 5.058400e+00
 993 Ag 4.379405e+01 2.405233e+01 4.464050e+00
 994 Ag 4.407605e+01 2.740293e+01 0.000000e+00
 995 Ag 4.263165e+01 2.990463e+01 0.000000e+00
 996 Ag 4.245245e+01 2.815413e+01 2.372300e+00
 997 Ag 4.404205e+01 3.066203e+01 2.275920e+00
 998 Ag 4.404155e+01 2.900983e+01 4.757110e+00
 999 Ag 4.525175e+01 3.171463e+01 4.718950e+00
1000 Ag 4.407605e+01 3.240633e+01 0.000000e+00
1001 Ag 4.263165e+01 3.490803e+01 0.000000e+00
1002 Ag 4.286785e+01 3.331473e+01 2.539290e+00
1003 Ag 4.401795e+01 3.584703e+01 2.397000e+00
1004 Ag 4.676175e+01 3.417043e+01 5.105500e+00
1005 Ag 4.008425e+01 3.671633e+01 4.598200e+00
1006 Ag 4.407605e+01 3.740983e+01 0.000000e+00
1007 Ag 4.263165e+01 3.991153e+01 0.000000e+00
1008 Ag 4.244195e+01 3.848063e+01 2.237950e+00
1009 Ag 4.390505e+01 4.070793e+01 2.475570e+00
1010 Ag 3.836195e+01 3.901663e+01 4.522040e+00
1011 Ag 4.394185e+01 3.876883e+01 4.838030e+00
1012 Ag 4.407605e+01 4.241323e+01 0.000000e+00
1013 Ag 4.263165e+01 4.491493e+01 0.000000e+00
1014 Ag 4.267755e+01 4.333383e+01 2.454470e+00
1015 Ag 4.408485e+01 4.562523e+01 2.472850e+00
1016 Ag 4.289665e+01 4.119633e+01 5.262710e+00
1017 Ag 4.406245e+01 4.387323e+01 5.275410e+00
1018 Ag 4.407605e+01 4.741673e+01 0.000000e+00
1019 Ag 4.263165e+01 4.991843e+01 0.000000e+00
1020 Ag 4.247295e+01 4.809643e+01 2.343370e+00
1021 Ag 4.423105e+01 7.306187e-01 2.459320e+00
1022 Ag 4.286475e+01 4.693223e+01 4.776070e+00
1023 Ag 4.413525e+01 4.929393e+01 4.824480e+00
1024  B 1.991205e+01 1.717393e+01 7.186800e+00
1025  B 3.331575e+01 2.335123e+01 6.861820e+00
1026  B 2.006455e+01 1.367753e+01 7.105450e+00
1027  B 2.737085e+01 1.808063e+01 7.198340e+00
1028  B 2.587005e+01 1.715763e+01 7.212680e+00
1029  B 2.898335e+01 1.394413e+01 7.415660e+00
1030  B 3.471975e+01 2.592053e+01 7.267290e+00
1031  B 2.567805e+01 2.586733e+01 7.187130e+00
1032  B 2.428725e+01 2.507433e+01 7.176270e+00
1033  B 3.037625e+01 1.822943e+01 7.266900e+00
1034  B 3.180585e+01 2.086433e+01 6.899970e+00
1035  B 2.586335e+01 2.077193e+01 7.377070e+00
1036  B 3.471595e+01 2.248493e+01 7.191150e+00
1037  B 2.276185e+01 2.581883e+01 7.119320e+00
1038  B 1.842175e+01 1.978633e+01 7.418190e+00
1039  B 2.874865e+01 2.577163e+01 7.316550e+00
1040  B 3.487815e+01 1.732893e+01 6.975440e+00
1041  B 3.330345e+01 2.003103e+01 7.257190e+00
1042  B 1.544965e+01 1.611623e+01 7.290030e+00
1043  B 2.138545e+01 2.325943e+01 6.803430e+00
1044  B 1.996905e+01 2.242713e+01 6.950530e+00
1045  B 1.999185e+01 2.065513e+01 7.288390e+00
1046  B 3.155805e+01 2.756253e+01 7.159040e+00
1047  B 2.145915e+01 1.971113e+01 7.230900e+00
1048  B 2.277445e+01 2.233593e+01 7.095550e+00
1049  B 1.844865e+01 2.482983e+01 7.209390e+00
1050  B 1.985955e+01 2.570063e+01 7.184380e+00
1051  B 2.275635e+01 2.753763e+01 7.262460e+00
1052  B 9.482144e+00 2.131963e+01 7.646050e+00
1053  B 2.562765e+01 3.080573e+01 6.802050e+00
1054  B 3.157435e+01 3.099583e+01 7.306440e+00
1055  B 1.843485e+01 2.308883e+01 7.066590e+00
1056  B 3.003785e+01 3.339473e+01 7.353840e+00
1057  B 2.872555e+01 2.073443e+01 7.150640e+00
1058  B 2.708735e+01 2.996163e+01 7.129460e+00
1059  B 2.415505e+01 3.005203e+01 7.591150e+00
1060  B 2.867695e+01 2.754703e+01 7.154740e+00
1061  B 2.450185e+01 1.480263e+01 7.242580e+00
1062  B 2.410375e+01 2.841863e+01 7.302930e+00
1063  B 1.859545e+01 1.452383e+01 7.136390e+00
1064  B 1.704905e+01 1.704033e+01 6.991260e+00
1065  B 1.684445e+01 2.555793e+01 7.555160e+00
1066  B 2.120025e+01 2.831113e+01 7.229930e+00
1067  B 2.876275e+01 2.412823e+01 7.163310e+00
1068  B 2.574265e+01 2.253743e+01 7.183020e+00
1069  B 2.138545e+01 2.494263e+01 6.898640e+00
1070  B 3.151265e+01 3.595333e+01 7.605000e+00
1071  B 2.846845e+01 3.576213e+01 7.424060e+00
1072  B 3.023465e+01 2.333313e+01 6.844260e+00
1073  B 2.856945e+01 3.083063e+01 6.983400e+00
1074  B 2.726875e+01 2.501163e+01 7.294570e+00
1075  B 9.557444e+00 1.958103e+01 7.487770e+00
1076  B 2.134035e+01 1.805813e+01 7.267330e+00
1077  B 2.548945e+01 3.756853e+01 7.456340e+00
1078  B 3.000065e+01 2.836813e+01 7.321760e+00
1079  B 2.705945e+01 3.333663e+01 6.927000e+00
1080  B 2.445665e+01 1.973993e+01 7.461940e+00
1081  B 2.699825e+01 3.847653e+01 7.396810e+00
1082  B 1.855635e+01 2.145283e+01 7.282720e+00
1083  B 3.191115e+01 1.570133e+01 7.168950e+00
1084  B 3.192655e+01 1.742943e+01 7.201740e+00
1085  B 2.404455e+01 3.847733e+01 7.687920e+00
1086  B 2.437005e+01 2.149473e+01 7.180710e+00
1087  B 2.907735e+01 5.583001e+00 7.051390e+00
1088  B 2.443765e+01 1.302013e+01 7.143670e+00
1089  B 2.750725e+01 1.298323e+01 7.387050e+00
1090  B 2.565115e+01 2.756233e+01 6.857290e+00
1091  B 2.287065e+01 1.737653e+01 7.344260e+00
1092  B 2.755345e+01 1.464233e+01 7.341720e+00
1093  B 3.026525e+01 2.508443e+01 7.027590e+00
1094  B 3.039855e+01 1.486103e+01 7.155190e+00
1095  B 2.739245e+01 1.992983e+01 7.383360e+00
1096  B 3.027435e+01 1.988743e+01 7.122420e+00
1097  B 3.004385e+01 3.505383e+01 7.238540e+00
1098  B 2.448905e+01 1.805703e+01 7.382940e+00
1099  B 2.712275e+01 2.828943e+01 6.934810e+00
1100  B 2.289405e+01 1.562273e+01 7.510860e+00
1101  B 3.477315e+01 2.083613e+01 6.980790e+00
1102  B 3.467235e+01 2.417003e+01 7.519180e+00
1103  B 3.013715e+01 2.999063e+01 7.166430e+00
1104  B 3.322515e+01 2.511453e+01 6.851830e+00
1105  B 3.345595e+01 1.655563e+01 7.552230e+00
1106  B 2.881245e+01 2.245653e+01 7.108560e+00
1107  B 2.271785e+01 3.088933e+01 7.490350e+00
1108  B 3.604995e+01 2.832743e+01 7.898050e+00
1109  B 3.031585e+01 2.158053e+01 7.012350e+00
1110  B 1.255875e+01 1.802343e+01 7.314980e+00
1111  B 2.420955e+01 3.343413e+01 6.751640e+00
1112  B 2.399245e+01 4.018003e+01 7.374670e+00
1113  B 3.339675e+01 1.832263e+01 7.171550e+00
1114  B 2.267015e+01 3.256593e+01 7.591510e+00
1115  B 3.300775e+01 3.347033e+01 7.251740e+00
1116  B 6.475044e+00 1.944613e+01 7.347720e+00
1117  B 2.599885e+01 1.545723e+01 7.351640e+00
1118  B 1.120145e+01 1.701663e+01 7.630160e+00
1119  B 2.108855e+01 2.997013e+01 7.568060e+00
1120  B 2.868485e+01 3.248883e+01 6.749750e+00
1121  B 1.407035e+01 1.716053e+01 7.213320e+00
1122  B 2.570395e+01 3.251203e+01 7.024940e+00
1123  B 2.596235e+01 1.897663e+01 7.283890e+00
1124  B 1.965115e+01 3.079333e+01 7.789530e+00
1125  B 1.824745e+01 2.815903e+01 7.185310e+00
1126  B 1.710705e+01 1.359183e+01 7.320680e+00
1127  B 1.995045e+01 1.887513e+01 7.086580e+00
1128  B 1.565475e+01 1.800353e+01 7.604810e+00
1129  B 2.258725e+01 3.756823e+01 7.581650e+00
1130  B 2.606665e+01 1.062867e+01 7.451060e+00
1131  B 2.459865e+01 9.568551e+00 7.281710e+00
1132  B 3.165545e+01 2.584243e+01 7.036750e+00
1133  B 2.281165e+01 2.408103e+01 6.948850e+00
1134  B 1.703335e+01 2.217133e+01 7.320650e+00
1135  B 3.170765e+01 2.248653e+01 6.991530e+00
1136  B 3.450575e+01 3.264813e+01 7.403740e+00
1137  B 1.387985e+01 2.720693e+01 7.361960e+00
1138  B 1.549235e+01 1.972503e+01 7.392120e+00
1139  B 2.892775e+01 1.731143e+01 7.472980e+00
1140  B 1.543245e+01 2.798753e+01 6.868230e+00
1141  B 2.407785e+01 3.530233e+01 6.622780e+00
1142  B 2.257045e+01 3.593143e+01 7.149260e+00
1143  B 2.114605e+01 3.335673e+01 7.729510e+00
1144  B 1.952135e+01 3.585853e+01 7.489790e+00
1145  B 3.325345e+01 1.479433e+01 7.392860e+00
1146  B 3.499545e+01 1.064891e+01 7.539060e+00
1147  B 1.094065e+01 2.394033e+01 7.528600e+00
1148  B 3.051565e+01 1.328403e+01 7.122500e+00
1149  B 2.905895e+01 1.232253e+01 6.956040e+00
1150  B 2.112405e+01 3.502883e+01 7.338110e+00
1151  B 2.764765e+01 9.792271e+00 7.651880e+00
1152  B 2.558355e+01 3.588923e+01 6.933400e+00
1153  B 2.720095e+01 2.666953e+01 7.086850e+00
1154  B 2.420365e+01 3.171983e+01 7.132230e+00
1155  B 3.019665e+01 3.162373e+01 6.617710e+00
1156  B 3.158305e+01 3.276213e+01 6.911320e+00
1157  B 2.598305e+01 1.231243e+01 7.157770e+00
1158  B 3.149235e+01 3.755453e+01 7.637790e+00
1159  B 1.672495e+01 3.064833e+01 7.169460e+00
1160  B 2.847375e+01 4.099083e+01 7.197510e+00
1161  B 3.294895e+01 3.514973e+01 7.221930e+00
1162  B 3.600755e+01 3.005813e+01 8.012300e+00
1163  B 1.544465e+01 2.140253e+01 7.138370e+00
1164  B 3.609305e+01 2.500573e+01 7.477630e+00
1165  B 1.846335e+01 1.624163e+01 7.048620e+00
1166  B 2.146205e+01 1.634753e+01 7.246970e+00
1167  B 2.891165e+01 1.555753e+01 7.646430e+00
1168  B 1.700635e+01 1.881683e+01 7.259290e+00
1169  B 2.694205e+01 4.012033e+01 6.923590e+00
1170  B 3.902575e+01 2.346013e+01 7.059440e+00
1171  B 2.698115e+01 4.192933e+01 7.129740e+00
1172  B 3.622595e+01 1.990893e+01 7.212610e+00
1173  B 2.695935e+01 3.508113e+01 7.131880e+00
1174  B 2.989455e+01 4.020843e+01 7.327710e+00
1175  B 1.388995e+01 2.890703e+01 7.262300e+00
1176  B 3.625455e+01 1.828993e+01 7.153410e+00
1177  B 3.611595e+01 3.345893e+01 7.308750e+00
1178  B 9.710044e+00 1.783343e+01 8.126140e+00
1179  B 1.527565e+01 3.310653e+01 7.475940e+00
1180  B 1.676635e+01 2.724433e+01 7.571010e+00
1181  B 2.860165e+01 3.401703e+01 7.203830e+00
1182  B 2.997665e+01 3.829823e+01 7.375880e+00
1183  B 1.385915e+01 2.220213e+01 7.016380e+00
1184  B 1.835265e+01 2.983893e+01 6.837920e+00
1185  B 2.749305e+01 1.644503e+01 7.390050e+00
1186  B 1.533595e+01 2.469283e+01 7.433840e+00
1187  B 3.484695e+01 1.565533e+01 7.382720e+00
1188  B 2.856145e+01 3.751453e+01 7.366570e+00
1189  B 3.774105e+01 1.744953e+01 7.210220e+00
1190  B 1.552625e+01 1.451193e+01 6.997150e+00
1191  B 1.235615e+01 2.128623e+01 7.269820e+00
1192  B 3.184235e+01 1.908683e+01 6.873100e+00
1193  B 2.693575e+01 3.666383e+01 7.681190e+00
1194  B 1.713085e+01 1.531863e+01 7.092810e+00
1195  B 2.301585e+01 1.219553e+01 7.594460e+00
1196  B 1.228245e+01 2.295273e+01 7.847410e+00
1197  B 1.854345e+01 1.271593e+01 7.536080e+00
1198  B 2.004645e+01 1.190783e+01 7.194720e+00
1199  B 2.843725e+01 4.273723e+01 7.043060e+00
1200  B 1.668925e+01 3.232013e+01 7.290510e+00
1201  B 2.136035e+01 2.665523e+01 7.174100e+00
1202  B 3.771755e+01 1.909463e+01 7.199130e+00
1203  B 3.770815e+01 2.084433e+01 7.224840e+00
1204  B 1.967575e+01 3.248453e+01 7.503050e+00
1205  B 2.022105e+01 1.024672e+01 6.965610e+00
1206  B 1.822395e+01 3.314643e+01 6.981790e+00
1207  B 3.129875e+01 4.107403e+01 7.290880e+00
1208  B 3.294195e+01 4.022683e+01 7.341540e+00
1209  B 2.264515e+01 3.417853e+01 7.122450e+00
1210  B 3.193195e+01 1.078514e+01 7.030080e+00
1211  B 1.390895e+01 2.376673e+01 7.628490e+00
1212  B 8.119844e+00 1.869243e+01 7.360960e+00
1213  B 1.534015e+01 2.633343e+01 7.337120e+00
1214  B 1.695015e+01 2.390393e+01 7.409930e+00
1215  B 2.304235e+01 1.047453e+01 7.086730e+00
1216  B 1.377775e+01 3.048133e+01 7.669740e+00
1217  B 3.750725e+01 2.425043e+01 7.191960e+00
1218  B 1.085385e+01 2.881633e+01 7.118120e+00
1219  B 2.456665e+01 1.131763e+01 7.353730e+00
1220  B 7.967244e+00 2.880853e+01 6.573570e+00
1221  B 1.413775e+01 2.049393e+01 7.583610e+00
1222  B 7.966944e+00 2.212123e+01 7.221580e+00
1223  B 6.520344e+00 2.287823e+01 7.179770e+00
1224  B 2.560375e+01 2.921373e+01 7.396820e+00
1225  B 2.543115e+01 4.100303e+01 7.141770e+00
1226  B 8.002144e+00 2.374613e+01 7.022350e+00
1227  B 3.190895e+01 1.239213e+01 7.163380e+00
1228  B 1.243015e+01 2.472323e+01 7.468400e+00
1229  B 2.109625e+01 3.838253e+01 7.355950e+00
1230  B 3.761335e+01 3.946193e+01 6.755780e+00
1231  B 1.801965e+01 3.856473e+01 6.780990e+00
1232  B 3.156175e+01 2.920563e+01 7.648340e+00
1233  B 1.959685e+01 3.943453e+01 6.715510e+00
1234  B 3.893765e+01 2.675413e+01 7.062360e+00
1235  B 2.108315e+01 4.007183e+01 6.751530e+00
1236  B 1.230295e+01 3.137393e+01 7.324010e+00
1237  B 3.768985e+01 2.747673e+01 7.639480e+00
1238  B 3.743245e+01 2.926213e+01 7.145500e+00
1239  B 3.330395e+01 2.674053e+01 7.378660e+00
1240  B 1.810495e+01 3.671733e+01 6.705300e+00
1241  B 1.673615e+01 3.579493e+01 7.384080e+00
1242  B 1.662995e+01 3.749573e+01 6.996970e+00
1243  B 3.479775e+01 1.383903e+01 6.966610e+00
1244  B 3.744595e+01 3.093213e+01 7.774180e+00
1245  B 2.623655e+01 8.960231e+00 7.574200e+00
1246  B 1.954485e+01 3.768803e+01 7.182840e+00
1247  B 3.315185e+01 2.846323e+01 7.422170e+00
1248  B 2.239905e+01 4.114293e+01 7.084490e+00
1249  B 2.397335e+01 4.187493e+01 6.968670e+00
1250  B 2.541615e+01 4.283373e+01 6.881650e+00
1251  B 2.692735e+01 4.362453e+01 7.118060e+00
1252  B 3.351635e+01 7.893911e+00 6.980950e+00
1253  B 3.330965e+01 1.313493e+01 7.595620e+00
1254  B 1.373485e+01 3.559583e+01 7.292260e+00
1255  B 1.517295e+01 3.654163e+01 7.113330e+00
1256  B 3.463215e+01 3.086753e+01 7.469580e+00
1257  B 2.622895e+01 7.264371e+00 7.044060e+00
1258  B 3.044315e+01 9.736261e+00 7.343390e+00
1259  B 3.753905e+01 3.257833e+01 7.896110e+00
1260  B 3.770995e+01 1.566053e+01 7.346410e+00
1261  B 3.495665e+01 1.222483e+01 7.758220e+00
1262  B 3.303255e+01 3.866333e+01 7.366920e+00
1263  B 3.635475e+01 1.145527e+01 7.596480e+00
1264  B 1.370565e+01 3.384243e+01 7.473250e+00
1265  B 1.519035e+01 3.488853e+01 7.682840e+00
1266  B 1.224275e+01 3.299833e+01 7.038450e+00
1267  B 1.229845e+01 3.468413e+01 7.065880e+00
1268  B 3.735895e+01 3.609123e+01 6.973180e+00
1269  B 6.450144e+00 2.117793e+01 7.120250e+00
1270  B 8.059444e+00 2.028113e+01 7.206990e+00
1271  B 3.315985e+01 3.019533e+01 7.657960e+00
1272  B 3.297705e+01 3.677073e+01 7.490480e+00
1273  B 9.476944e+00 2.972643e+01 6.850690e+00
1274  B 7.909944e+00 2.549193e+01 7.324570e+00
1275  B 1.968945e+01 2.736963e+01 7.551570e+00
1276  B 7.860944e+00 2.721343e+01 6.962280e+00
1277  B 1.823025e+01 3.492763e+01 7.042240e+00
1278  B 1.079445e+01 3.218073e+01 7.245740e+00
1279  B 6.459644e+00 2.463463e+01 7.113320e+00
1280  B 6.427844e+00 2.630733e+01 7.060190e+00
1281  B 1.075315e+01 3.398723e+01 7.181570e+00
1282  B 3.465815e+01 2.761593e+01 7.480670e+00
1283  B 3.434055e+01 3.763293e+01 6.906060e+00
1284  B 1.530435e+01 2.971553e+01 7.355640e+00
1285  B 3.916005e+01 1.662643e+01 7.221790e+00
1286  B 3.923765e+01 1.826293e+01 7.103100e+00
1287  B 3.629175e+01 1.480923e+01 7.382320e+00
1288  B 9.419944e+00 2.643843e+01 7.221920e+00
1289  B 2.137885e+01 1.456173e+01 7.052330e+00
1290  B 2.109815e+01 3.160683e+01 7.022970e+00
1291  B 3.916645e+01 1.999893e+01 6.960400e+00
1292  B 3.644985e+01 1.313523e+01 7.741620e+00
1293  B 3.206655e+01 8.909041e+00 6.888530e+00
1294  B 3.922755e+01 2.170843e+01 7.054460e+00
1295  B 3.915555e+01 2.516503e+01 6.874740e+00
1296  B 3.768195e+01 2.254883e+01 7.570210e+00
1297  B 3.606105e+01 2.326593e+01 7.885180e+00
1298  B 3.791975e+01 1.404783e+01 7.725150e+00
1299  B 3.763605e+01 2.584933e+01 7.455430e+00
1300  B 3.926685e+01 1.505463e+01 7.619920e+00
1301  B 3.607065e+01 2.155803e+01 7.562310e+00
1302  B 3.894105e+01 2.839743e+01 7.377790e+00
1303  B 3.576165e+01 4.020323e+01 7.078000e+00
1304  B 3.428195e+01 4.115083e+01 6.873400e+00
1305  B 9.369144e+00 3.142903e+01 7.034460e+00
1306  B 3.907415e+01 3.006403e+01 7.414110e+00
1307  B 9.294544e+00 3.309733e+01 7.183420e+00
1308  B 1.243125e+01 2.638863e+01 7.419330e+00
1309  B 3.756075e+01 3.778143e+01 6.930130e+00
1310  B 3.929985e+01 3.815393e+01 6.753590e+00
1311  B 2.297285e+01 1.386673e+01 7.189170e+00
1312  B 3.853675e+01 4.108463e+01 6.773860e+00
1313  B 3.711495e+01 4.117203e+01 7.457690e+00
1314  B 2.768745e+01 8.207391e+00 7.050610e+00
1315  B 3.965165e+01 1.351023e+01 7.400020e+00
1316  B 3.911215e+01 3.169343e+01 7.324200e+00
1317  B 7.862744e+00 3.055283e+01 7.058290e+00
1318  B 6.473644e+00 2.803173e+01 6.872290e+00
1319  B 3.280645e+01 4.184623e+01 7.347760e+00
1320  B 3.882775e+01 3.666003e+01 6.941680e+00
1321  B 3.899035e+01 3.346353e+01 7.210270e+00
1322  B 3.902895e+01 3.506883e+01 7.111610e+00
1323  B 2.996615e+01 4.523053e+01 7.158550e+00
1324  B 2.854005e+01 4.439473e+01 7.229780e+00
1325  B 6.531944e+00 1.781733e+01 7.237300e+00
1326  B 8.200644e+00 1.543173e+01 7.198360e+00
1327  B 6.593944e+00 1.618103e+01 7.051720e+00
1328  B 9.631744e+00 1.450883e+01 7.035570e+00
1329  B 9.589444e+00 1.620793e+01 7.521560e+00
1330  B 3.454445e+01 3.599463e+01 7.270500e+00
1331  B 2.890225e+01 1.074262e+01 7.307810e+00
1332  B 3.596825e+01 3.512903e+01 7.514650e+00
1333  B 2.755535e+01 6.339961e+00 7.006400e+00
1334  B 3.596015e+01 3.853243e+01 7.152150e+00
1335  B 1.113635e+01 1.534543e+01 7.179620e+00
1336  B 3.573535e+01 4.190953e+01 7.279080e+00
1337  B 3.657645e+01 9.850071e+00 7.083030e+00
1338  B 3.431445e+01 4.301463e+01 7.311910e+00
1339  B 3.502205e+01 8.860781e+00 7.390840e+00
1340  B 3.285955e+01 4.368143e+01 7.377980e+00
1341  B 1.083045e+01 2.714313e+01 6.925380e+00
1342  B 3.142385e+01 3.931173e+01 7.398460e+00
1343  B 7.767844e+00 3.234563e+01 7.100400e+00
1344  B 1.091465e+01 2.214223e+01 7.890300e+00
1345  B 8.090844e+00 1.698113e+01 7.552910e+00
1346  B 3.209655e+01 7.153111e+00 6.881330e+00
1347  B 9.373544e+00 2.462023e+01 7.222890e+00
1348  B 1.230435e+01 2.973413e+01 7.531220e+00
1349  B 1.241685e+01 1.268303e+01 7.523480e+00
1350  B 1.259185e+01 1.969653e+01 7.471640e+00
1351  B 1.106645e+01 1.371343e+01 7.079480e+00
1352  B 1.404475e+01 1.878193e+01 7.745810e+00
1353  B 3.346425e+01 9.896161e+00 6.916060e+00
1354  B 1.399455e+01 1.214623e+01 7.478200e+00
1355  B 2.260655e+01 3.927433e+01 6.751160e+00
1356  B 2.470625e+01 7.913391e+00 6.940790e+00
1357  B 3.054265e+01 6.397981e+00 7.121620e+00
1358  B 1.256525e+01 1.445933e+01 7.069890e+00
1359  B 1.398765e+01 1.534713e+01 7.082880e+00
1360  B 1.965525e+01 2.905463e+01 7.561690e+00
1361  B 2.319635e+01 8.729971e+00 6.803590e+00
1362  B 1.097535e+01 2.567033e+01 7.769870e+00
1363  B 1.559535e+01 1.283023e+01 7.075940e+00
1364  B 3.650235e+01 8.237681e+00 6.630550e+00
1365  B 1.708085e+01 1.190063e+01 7.321140e+00
1366  B 2.170355e+01 9.450721e+00 6.845130e+00
1367  B 1.858195e+01 1.090886e+01 6.941060e+00
1368  B 2.911655e+01 7.277551e+00 7.333490e+00
1369  B 2.159145e+01 1.116127e+01 7.288350e+00
1370  B 3.066605e+01 8.013091e+00 7.299350e+00
1371  B 3.145885e+01 4.449363e+01 7.413780e+00
1372  B 1.825755e+01 3.149803e+01 7.520270e+00
1373  B 3.511015e+01 7.370021e+00 6.609780e+00
1374  B 2.098045e+01 3.667453e+01 7.739240e+00
1375  B 1.388725e+01 3.211983e+01 7.320970e+00
1376  B 1.259235e+01 1.113878e+01 7.074500e+00
1377  B 2.998085e+01 4.356783e+01 7.667030e+00
1378  B 1.398655e+01 1.041320e+01 6.949390e+00
1379  B 1.565435e+01 1.083045e+01 7.047740e+00
1380  B 1.716515e+01 1.010391e+01 7.127340e+00
1381  B 3.310495e+01 3.181653e+01 7.404140e+00
1382  B 1.671815e+01 3.407133e+01 7.615150e+00
1383  B 1.240335e+01 2.803443e+01 6.970410e+00
1384  B 6.509244e+00 3.136353e+01 6.771340e+00
1385  B 3.003515e+01 3.680033e+01 6.790650e+00
1386  B 3.951345e+01 3.976543e+01 6.596400e+00
1387  B 1.104335e+01 1.874593e+01 7.575150e+00
1388  B 3.045715e+01 1.147696e+01 7.373490e+00
1389  B 6.441044e+00 2.970163e+01 6.953170e+00
1390  B 3.138145e+01 4.276293e+01 7.647360e+00
1391  B 1.550785e+01 2.306293e+01 7.472140e+00
1392  B 4.023725e+01 1.215523e+01 6.558550e+00
1393  B 2.553095e+01 3.925673e+01 7.800340e+00
1394  B 1.685165e+01 2.899883e+01 7.697520e+00
1395  B 3.597865e+01 3.181793e+01 7.974530e+00
1396  B 3.592755e+01 3.686513e+01 7.268330e+00
1397  B 3.745805e+01 3.416153e+01 6.755260e+00
1398  Xbeta12 2.912023e+01 8.968724e+00 7.240165e+00
1399  Xbeta12 2.749892e+01 1.144285e+01 7.240165e+00
1400  Xbeta12 3.346636e+01 1.153293e+01 7.240165e+00
1401  Xchi3 2.153140e+01 1.285434e+01 7.240165e+00
1402  Xunknown 1.400927e+01 1.366779e+01 7.240165e+00
1403  Xbeta12 2.599246e+01 1.388417e+01 7.240165e+00
1404  Xbeta12 3.188015e+01 1.404873e+01 7.240165e+00
1405  Xchi3 1.999958e+01 1.547852e+01 7.240165e+00
1406  Xunknown 1.263654e+01 1.623847e+01 7.240165e+00
1407  Xchi3 2.438585e+01 1.639435e+01 7.240165e+00
1408  Xbeta12 3.634273e+01 1.653851e+01 7.240165e+00
1409  Xbeta12 3.042597e+01 1.653970e+01 7.240165e+00
1410  Xchi3 1.846510e+01 1.804109e+01 7.240165e+00
1411  Xbeta12 2.884012e+01 1.900024e+01 7.240165e+00
1412  Xchi3 2.296046e+01 1.893885e+01 7.240165e+00
1413  Xbeta12 3.480439e+01 1.910120e+01 7.240165e+00
1414  Xunknown 1.097925e+01 2.042085e+01 7.240165e+00
1415  Xchi3 1.694811e+01 2.054739e+01 7.240165e+00
1416  Xchi3 2.138944e+01 2.148427e+01 7.240165e+00
1417  Xbeta12 2.728644e+01 2.164374e+01 7.240165e+00
1418  Xbeta12 3.323847e+01 2.168858e+01 7.240165e+00
1419  Xunknown 9.485250e+00 2.296963e+01 7.240165e+00
1420  Xunknown 1.991460e+01 2.404586e+01 7.240165e+00
1421  Xbeta12 3.178248e+01 2.414808e+01 7.240165e+00
1422  Xbeta12 2.576173e+01 2.416022e+01 7.240165e+00
1423  Xunknown 1.386931e+01 2.548555e+01 7.240165e+00
1424  Xunknown 1.828429e+01 2.645143e+01 7.240165e+00
1425  Xbeta12 3.013354e+01 2.670208e+01 7.240165e+00
1426  Xbeta12 2.423081e+01 2.671662e+01 7.240165e+00
1427  Xunknown 3.617074e+01 2.671383e+01 7.240165e+00
1428  Xunknown 9.387197e+00 2.803121e+01 7.240165e+00
1429  Xunknown 3.459939e+01 2.923803e+01 7.240165e+00
1430  Xbeta12 2.858529e+01 2.921273e+01 7.240165e+00
1431  Xbeta12 2.262475e+01 2.923512e+01 7.240165e+00
1432  Xunknown 1.085589e+01 3.052982e+01 7.240165e+00
1433  Xunknown 1.527005e+01 3.136932e+01 7.240165e+00
1434  Xbeta12 2.713629e+01 3.167688e+01 7.240165e+00
1435  Xunknown 1.967773e+01 3.414230e+01 7.240165e+00
1436  Xunknown 3.149269e+01 3.433560e+01 7.240165e+00
1437  Xbeta12 2.554655e+01 3.424976e+01 7.240165e+00
1438  Xunknown 3.450870e+01 3.429854e+01 7.240165e+00
1439  Xunknown 2.405516e+01 3.682423e+01 7.240165e+00
1440  Xunknown 2.850396e+01 3.924997e+01 7.240165e+00
1441  Xunknown 3.445861e+01 3.937259e+01 7.240165e+00
1442  Xunknown 2.988707e+01 4.188700e+01 7.240165e+00
